ALGO = Fast
DIPOL = 0.5 0.5 0.1667
EDIFF = 1e-05
EDIFFG = -0.02
ENCUT = 400.0
IBRION = 2
IDIPOL = 3
ISIF = 2
ISMEAR = 0
ISYM = 0
LCHARG = False
LDIPOL = True
LREAL = Auto
LVTOT = True
LWAVE = False
NELMIN = 6
NSW = 200
PREC = Accurate
SIGMA = 0.05
