Mo24 C12
1.0
   5.2097570200000041    0.0000000000000000   -4.7285430999999960
   0.0000000000000037    6.0526024900000008   -4.7285430999999987
   0.0000000000000000    0.0000000000000000   42.5568878999999924
Mo C
24 12
direct
   0.0795088700000000    0.1220236400000000    0.0496756666666667 Mo
   0.0795088700000000    0.1220236400000000    0.1607867777777778 Mo
   0.0795088700000000    0.1220236400000000    0.2718978888888889 Mo
   0.9204911300000000    0.3779763600000000    0.0048906644444445 Mo
   0.9204911300000000    0.3779763600000000    0.1160017755555556 Mo
   0.9204911300000000    0.3779763600000000    0.2271128866666667 Mo
   0.5795088700000001    0.3779763600000000    0.0235485266666667 Mo
   0.5795088700000001    0.3779763600000000    0.1346596377777778 Mo
   0.5795088700000001    0.3779763600000000    0.2457707488888889 Mo
   0.4204911299999999    0.1220236400000000    0.0329962533333333 Mo
   0.4204911299999999    0.1220236400000000    0.1441073644444445 Mo
   0.4204911299999999    0.1220236400000000    0.2552184755555556 Mo
   0.5795088700000000    0.8779763599999998    0.0781148577777778 Mo
   0.5795088700000000    0.8779763599999998    0.1892259688888890 Mo
   0.5795088700000000    0.8779763599999998    0.3003370800000000 Mo
   0.4204911299999999    0.6220236399999998    0.0875625844444445 Mo
   0.4204911299999999    0.6220236399999998    0.1986736955555556 Mo
   0.4204911299999999    0.6220236399999998    0.3097848066666667 Mo
   0.0795088700000000    0.6220236399999998    0.1062204466666667 Mo
   0.0795088700000000    0.6220236399999998    0.2173315577777778 Mo
   0.0795088700000000    0.6220236399999998    0.3284426688888890 Mo
   0.9204911299999999    0.8779763599999998    0.0614354444444445 Mo
   0.9204911299999999    0.8779763599999998    0.1725465555555556 Mo
   0.9204911299999999    0.8779763599999998    0.2836576666666668 Mo
   0.7500000000000000    0.1225193000000000    0.0413910333333334 C
   0.7500000000000000    0.1225193000000000    0.1525021444444445 C
   0.7500000000000000    0.1225193000000000    0.2636132555555556 C
   0.2500000000000000    0.3774806999999999    0.0697200777777778 C
   0.2500000000000000    0.3774806999999999    0.1808311888888889 C
   0.2500000000000000    0.3774806999999999    0.2919423000000000 C
   0.2500000000000000    0.8774807000000000    0.0697200777777778 C
   0.2500000000000000    0.8774807000000000    0.1808311888888889 C
   0.2500000000000000    0.8774807000000000    0.2919423000000001 C
   0.7500000000000000    0.6225193000000000    0.0413910333333333 C
   0.7500000000000000    0.6225193000000000    0.1525021444444445 C
   0.7500000000000000    0.6225193000000000    0.2636132555555555 C
