Ti90 O180
1.0
  10.7847349425586163    0.0000000000000000    0.0060328200944446
  -1.2247047225377732   10.4583487854001529    9.3482210382165096
   0.0000000000000000    0.0000000000000000   62.9170570674836966
Ti O
90 180
direct
   0.3479379999999991    0.8204740000000001    0.0894823333333333 Ti
   0.3479379999999991    0.8204740000000001    0.2561490000000001 Ti
   0.3479379999999991    0.8204740000000001    0.4228156666666667 Ti
   0.1008690000000000    0.1441720000000008    0.0591479999999999 Ti
   0.1008690000000000    0.1441720000000008    0.2258146666666665 Ti
   0.1008690000000000    0.1441720000000008    0.3924813333333331 Ti
   0.8065249999999994    0.4774350000000001    0.0229648333333333 Ti
   0.8065249999999994    0.4774350000000001    0.1896315000000000 Ti
   0.8065249999999994    0.4774350000000001    0.3562981666666666 Ti
   0.7909490000000001    0.2465539999999999    0.1541566666666667 Ti
   0.7909490000000001    0.2465539999999999    0.3208233333333335 Ti
   0.7909490000000001    0.2465539999999999    0.4874900000000001 Ti
   0.4398120000000000    0.7044890000000010    0.0568544999999999 Ti
   0.4398120000000000    0.7044890000000010    0.2235211666666664 Ti
   0.4398120000000000    0.7044890000000010    0.3901878333333331 Ti
   0.1631409999999990    0.5778510000000001    0.0998610000000000 Ti
   0.1631409999999990    0.5778510000000001    0.2665276666666667 Ti
   0.1631409999999990    0.5778510000000001    0.4331943333333333 Ti
   0.5602509999999991    0.0046750000000008    0.0384991666666666 Ti
   0.5602509999999991    0.0046750000000008    0.2051658333333332 Ti
   0.5602509999999991    0.0046750000000008    0.3718325000000000 Ti
   0.5211030000000000    0.4422479999999999    0.1018225000000000 Ti
   0.5211030000000000    0.4422479999999999    0.2684891666666667 Ti
   0.5211030000000000    0.4422479999999999    0.4351558333333334 Ti
   0.5445340000000000    0.3619320000000000    0.0621169999999999 Ti
   0.5445340000000000    0.3619320000000000    0.2287836666666664 Ti
   0.5445340000000000    0.3619320000000000    0.3954503333333331 Ti
   0.3685410000000002    0.5153020000000010    0.1520034999999997 Ti
   0.3685410000000002    0.5153020000000010    0.3186701666666663 Ti
   0.3685410000000002    0.5153020000000010    0.4853368333333331 Ti
   0.0395639999999990    0.6267690000000000    0.0290623333333333 Ti
   0.0395639999999990    0.6267690000000000    0.1957289999999999 Ti
   0.0395639999999990    0.6267690000000000    0.3623956666666666 Ti
   0.4267149999999991    0.1029350000000001    0.0682760000000000 Ti
   0.4267149999999991    0.1029350000000001    0.2349426666666666 Ti
   0.4267149999999991    0.1029350000000001    0.4016093333333333 Ti
   0.4301250000000000    0.9143660000000000    0.1431718333333332 Ti
   0.4301250000000000    0.9143660000000000    0.3098384999999999 Ti
   0.4301250000000000    0.9143660000000000    0.4765051666666665 Ti
   0.8723019999999996    0.9280300000000002    0.1133631666666667 Ti
   0.8723019999999996    0.9280300000000002    0.2800298333333333 Ti
   0.8723019999999996    0.9280300000000002    0.4466964999999999 Ti
   0.1865880000000000    0.8336970000000010    0.0276103333333330 Ti
   0.1865880000000000    0.8336970000000010    0.1942769999999997 Ti
   0.1865880000000000    0.8336970000000010    0.3609436666666664 Ti
   0.6539610000000002    0.6951250000000000    0.0146631666666665 Ti
   0.6539610000000002    0.6951250000000000    0.1813298333333332 Ti
   0.6539610000000002    0.6951250000000000    0.3479964999999999 Ti
   0.3001759999999999    0.1249779999999997    0.0173026666666668 Ti
   0.3001759999999999    0.1249779999999997    0.1839693333333334 Ti
   0.3001759999999999    0.1249779999999997    0.3506360000000001 Ti
   0.2299519999999999    0.7013280000000000    0.1463868333333334 Ti
   0.2299519999999999    0.7013280000000000    0.3130535000000001 Ti
   0.2299519999999999    0.7013280000000000    0.4797201666666667 Ti
   0.2223479999999999    0.3955090000000000    0.0520503333333334 Ti
   0.2223479999999999    0.3955090000000000    0.2187170000000000 Ti
   0.2223479999999999    0.3955090000000000    0.3853836666666667 Ti
   0.5601389999999993    0.3160910000000000    0.0048798333333334 Ti
   0.5601389999999993    0.3160910000000000    0.1715465000000000 Ti
   0.5601389999999993    0.3160910000000000    0.3382131666666667 Ti
   0.0458439999999990    0.0765540000000000    0.0105448333333334 Ti
   0.0458439999999990    0.0765540000000000    0.1772115000000000 Ti
   0.0458439999999990    0.0765540000000000    0.3438781666666667 Ti
   0.7670669999999988    0.1698310000000008    0.0481108333333332 Ti
   0.7670669999999988    0.1698310000000008    0.2147774999999999 Ti
   0.7670669999999988    0.1698310000000008    0.3814441666666666 Ti
   0.0141669999999990    0.1413960000000010    0.1118104999999999 Ti
   0.0141669999999990    0.1413960000000010    0.2784771666666666 Ti
   0.0141669999999990    0.1413960000000010    0.4451438333333332 Ti
   0.9002000000000000    0.6815009999999999    0.1142761666666667 Ti
   0.9002000000000000    0.6815009999999999    0.2809428333333335 Ti
   0.9002000000000000    0.6815009999999999    0.4476095000000001 Ti
   0.9040300000000002    0.8948880000000002    0.0061601666666666 Ti
   0.9040300000000002    0.8948880000000002    0.1728268333333333 Ti
   0.9040300000000002    0.8948880000000002    0.3394935000000000 Ti
   0.2487680000000000    0.3399710000000001    0.1100213333333334 Ti
   0.2487680000000000    0.3399710000000001    0.2766879999999999 Ti
   0.2487680000000000    0.3399710000000001    0.4433546666666666 Ti
   0.6409000000000002    0.7353340000000003    0.0869650000000000 Ti
   0.6409000000000002    0.7353340000000003    0.2536316666666666 Ti
   0.6409000000000002    0.7353340000000003    0.4202983333333333 Ti
   0.6138279999999990    0.8367120000000000    0.1172760000000000 Ti
   0.6138279999999990    0.8367120000000000    0.2839426666666667 Ti
   0.6138279999999990    0.8367120000000000    0.4506093333333334 Ti
   0.5144870000000001    0.1248010000000002    0.1363196666666667 Ti
   0.5144870000000001    0.1248010000000002    0.3029863333333333 Ti
   0.5144870000000001    0.1248010000000002    0.4696530000000000 Ti
   0.7612200000000001    0.3121970000000009    0.1017321666666664 Ti
   0.7612200000000001    0.3121970000000009    0.2683988333333331 Ti
   0.7612200000000001    0.3121970000000009    0.4350654999999998 Ti
   0.8739560000000002    0.9910120000000001    0.1344113333333334 O
   0.8739560000000002    0.9910120000000001    0.3010780000000000 O
   0.8739560000000002    0.9910120000000001    0.4677446666666666 O
   0.8036150000000000    0.7133380000000001    0.0860026666666665 O
   0.8036150000000000    0.7133380000000001    0.2526693333333332 O
   0.8036150000000000    0.7133380000000001    0.4193359999999997 O
   0.9485159999999990    0.2054380000000000    0.1610470000000001 O
   0.9485159999999990    0.2054380000000000    0.3277136666666666 O
   0.9485159999999990    0.2054380000000000    0.4943803333333334 O
   0.2662120000000000    0.5014220000000009    0.1319463333333332 O
   0.2662120000000000    0.5014220000000009    0.2986129999999999 O
   0.2662120000000000    0.5014220000000009    0.4652796666666665 O
   0.8931300000000003    0.5236930000000000    0.0409925000000001 O
   0.8931300000000003    0.5236930000000000    0.2076591666666666 O
   0.8931300000000003    0.5236930000000000    0.3743258333333334 O
   0.3974479999999990    0.6925810000000001    0.1284331666666667 O
   0.3974479999999990    0.6925810000000001    0.2950998333333335 O
   0.3974479999999990    0.6925810000000001    0.4617665000000000 O
   0.2208709999999990    0.2082220000000000    0.1497915000000001 O
   0.2208709999999990    0.2082220000000000    0.3164581666666667 O
   0.2208709999999990    0.2082220000000000    0.4831248333333334 O
   0.5392760000000002    0.7732650000000000    0.1527194999999999 O
   0.5392760000000002    0.7732650000000000    0.3193861666666665 O
   0.5392760000000002    0.7732650000000000    0.4860528333333333 O
   0.5830440000000002    0.3545419999999999    0.1381065000000000 O
   0.5830440000000002    0.3545419999999999    0.3047731666666667 O
   0.5830440000000002    0.3545419999999999    0.4714398333333332 O
   0.1244670000000000    0.4280370000000000    0.1080313333333332 O
   0.1244670000000000    0.4280370000000000    0.2746979999999998 O
   0.1244670000000000    0.4280370000000000    0.4413646666666664 O
   0.0680549999999990    0.6614070000000000    0.4963803333333334 O
   0.0680549999999990    0.6614070000000000    0.1630469999999999 O
   0.0680549999999990    0.6614070000000000    0.3297136666666666 O
   0.2100409999999990    0.8127910000000002    0.1074150000000000 O
   0.2100409999999990    0.8127910000000002    0.2740816666666667 O
   0.2100409999999990    0.8127910000000002    0.4407483333333333 O
   0.6015980000000001    0.2259720000000008    0.0976426666666666 O
   0.6015980000000001    0.2259720000000008    0.2643093333333332 O
   0.6015980000000001    0.2259720000000008    0.4309759999999999 O
   0.9369569999999992    0.8329630000000001    0.1060353333333332 O
   0.9369569999999992    0.8329630000000001    0.2727019999999998 O
   0.9369569999999992    0.8329630000000001    0.4393686666666665 O
   0.7478680000000001    0.3017190000000008    0.0071048333333332 O
   0.7478680000000001    0.3017190000000008    0.1737714999999999 O
   0.7478680000000001    0.3017190000000008    0.3404381666666666 O
   0.1286800000000000    0.6762770000000001    0.0599653333333333 O
   0.1286800000000000    0.6762770000000001    0.2266320000000001 O
   0.1286800000000000    0.6762770000000001    0.3932986666666667 O
   0.3732089999999991    0.0628869999999998    0.1291163333333332 O
   0.3732089999999991    0.0628869999999998    0.2957829999999999 O
   0.3732089999999991    0.0628869999999998    0.4624496666666666 O
   0.9236479999999990    0.9405430000000010    0.0278373333333333 O
   0.9236479999999990    0.9405430000000010    0.1945040000000000 O
   0.9236479999999990    0.9405430000000010    0.3611706666666666 O
   0.9223730000000000    0.1389929999999998    0.0502815000000001 O
   0.9223730000000000    0.1389929999999998    0.2169481666666667 O
   0.9223730000000000    0.1389929999999998    0.3836148333333334 O
   0.9020089999999999    0.2535110000000002    0.0975136666666666 O
   0.9020089999999999    0.2535110000000002    0.2641803333333331 O
   0.9020089999999999    0.2535110000000002    0.4308469999999998 O
   0.5288700000000001    0.4666590000000002    0.1602151666666665 O
   0.5288700000000001    0.4666590000000002    0.3268818333333332 O
   0.5288700000000001    0.4666590000000002    0.4935484999999998 O
   0.0372740000000000    0.6255510000000000    0.1096215000000001 O
   0.0372740000000000    0.6255510000000000    0.2762881666666668 O
   0.0372740000000000    0.6255510000000000    0.4429548333333334 O
   0.7350010000000000    0.9933010000000002    0.0910395000000000 O
   0.7350010000000000    0.9933010000000002    0.2577061666666667 O
   0.7350010000000000    0.9933010000000002    0.4243728333333332 O
   0.7777479999999998    0.7652890000000001    0.0229376666666665 O
   0.7777479999999998    0.7652890000000001    0.1896043333333332 O
   0.7777479999999998    0.7652890000000001    0.3562709999999998 O
   0.1128660000000000    0.3028190000000008    0.0467024999999999 O
   0.1128660000000000    0.3028190000000008    0.2133691666666666 O
   0.1128660000000000    0.3028190000000008    0.3800358333333333 O
   0.5646110000000001    0.9682820000000010    0.1528206666666665 O
   0.5646110000000001    0.9682820000000010    0.3194873333333331 O
   0.5646110000000001    0.9682820000000010    0.4861539999999998 O
   0.8562139999999991    0.5527519999999999    0.1538461666666667 O
   0.8562139999999991    0.5527519999999999    0.3205128333333333 O
   0.8562139999999991    0.5527519999999999    0.4871795000000001 O
   0.2876890000000000    0.7950530000000001    0.1540418333333332 O
   0.2876890000000000    0.7950530000000001    0.3207085000000000 O
   0.2876890000000000    0.7950530000000001    0.4873751666666666 O
   0.3119490000000000    0.7310080000000001    0.0785996666666667 O
   0.3119490000000000    0.7310080000000001    0.2452663333333334 O
   0.3119490000000000    0.7310080000000001    0.4119330000000000 O
   0.6368840000000000    0.4425230000000001    0.0804013333333334 O
   0.6368840000000000    0.4425230000000001    0.2470680000000001 O
   0.6368840000000000    0.4425230000000001    0.4137346666666667 O
   0.4617560000000002    0.0854470000000001    0.0064515000000000 O
   0.4617560000000002    0.0854470000000001    0.1731181666666667 O
   0.4617560000000002    0.0854470000000001    0.3397848333333334 O
   0.0542060000000000    0.0632090000000008    0.1482103333333332 O
   0.0542060000000000    0.0632090000000008    0.3148770000000000 O
   0.0542060000000000    0.0632090000000008    0.4815436666666666 O
   0.3509839999999990    0.8173380000000001    0.0236568333333332 O
   0.3509839999999990    0.8173380000000001    0.1903234999999999 O
   0.3509839999999990    0.8173380000000001    0.3569901666666666 O
   0.4720379999999992    0.9702880000000003    0.1050661666666665 O
   0.4720379999999992    0.9702880000000003    0.2717328333333332 O
   0.4720379999999992    0.9702880000000003    0.4383994999999998 O
   0.7638309999999990    0.7918760000000000    0.1437290000000001 O
   0.7638309999999990    0.7918760000000000    0.3103956666666667 O
   0.7638309999999990    0.7918760000000000    0.4770623333333334 O
   0.5759319999999999    0.1332180000000011    0.0441343333333332 O
   0.5759319999999999    0.1332180000000011    0.2108009999999998 O
   0.5759319999999999    0.1332180000000011    0.3774676666666664 O
   0.4226640000000000    0.2914620000000000    0.1164574999999999 O
   0.4226640000000000    0.2914620000000000    0.2831241666666666 O
   0.4226640000000000    0.2914620000000000    0.4497908333333332 O
   0.1914030000000000    0.9599750000000002    0.0281401666666667 O
   0.1914030000000000    0.9599750000000002    0.1948068333333333 O
   0.1914030000000000    0.9599750000000002    0.3614735000000000 O
   0.1594519999999990    0.5195680000000009    0.0484263333333330 O
   0.1594519999999990    0.5195680000000009    0.2150929999999998 O
   0.1594519999999990    0.5195680000000009    0.3817596666666664 O
   0.1384619999999999    0.1140920000000008    0.0335438333333331 O
   0.1384619999999999    0.1140920000000008    0.2002104999999998 O
   0.1384619999999999    0.1140920000000008    0.3668771666666664 O
   0.3836949999999998    0.2549929999999998    0.0134556666666666 O
   0.3836949999999998    0.2549929999999998    0.1801223333333332 O
   0.3836949999999998    0.2549929999999998    0.3467889999999999 O
   0.2678300000000000    0.5161840000000010    0.0093838333333332 O
   0.2678300000000000    0.5161840000000010    0.1760504999999998 O
   0.2678300000000000    0.5161840000000010    0.3427171666666665 O
   0.7179100000000000    0.0698520000000002    0.0254433333333334 O
   0.7179100000000000    0.0698520000000002    0.1921100000000000 O
   0.7179100000000000    0.0698520000000002    0.3587766666666667 O
   0.3878410000000001    0.4028710000000002    0.0596916666666667 O
   0.3878410000000001    0.4028710000000002    0.2263583333333334 O
   0.3878410000000001    0.4028710000000002    0.3930250000000001 O
   0.3703140000000000    0.9993610000000012    0.0562428333333330 O
   0.3703140000000000    0.9993610000000012    0.2229094999999997 O
   0.3703140000000000    0.9993610000000012    0.3895761666666665 O
   0.1724170000000000    0.2708770000000001    0.0948599999999999 O
   0.1724170000000000    0.2708770000000001    0.2615266666666665 O
   0.1724170000000000    0.2708770000000001    0.4281933333333332 O
   0.0296230000000000    0.0548199999999999    0.0974898333333334 O
   0.0296230000000000    0.0548199999999999    0.2641565000000000 O
   0.0296230000000000    0.0548199999999999    0.4308231666666666 O
   0.0428710000000000    0.8070050000000001    0.0113953333333334 O
   0.0428710000000000    0.8070050000000001    0.1780620000000000 O
   0.0428710000000000    0.8070050000000001    0.3447286666666667 O
   0.7001120000000000    0.1780890000000001    0.1391518333333332 O
   0.7001120000000000    0.1780890000000001    0.3058184999999998 O
   0.7001120000000000    0.1780890000000001    0.4724851666666666 O
   0.5427529999999994    0.6028380000000010    0.0948069999999998 O
   0.5427529999999994    0.6028380000000010    0.2614736666666665 O
   0.5427529999999994    0.6028380000000010    0.4281403333333332 O
   0.6677839999999992    0.7085150000000000    0.1205100000000000 O
   0.6677839999999992    0.7085150000000000    0.2871766666666667 O
   0.6677839999999992    0.7085150000000000    0.4538433333333333 O
   0.5019669999999992    0.2638999999999998    0.0535868333333334 O
   0.5019669999999992    0.2638999999999998    0.2202535000000001 O
   0.5019669999999992    0.2638999999999998    0.3869201666666667 O
   0.5481920000000000    0.8703910000000000    0.0824691666666667 O
   0.5481920000000000    0.8703910000000000    0.2491358333333333 O
   0.5481920000000000    0.8703910000000000    0.4158025000000001 O
   0.5340460000000001    0.6660159999999999    0.0399013333333332 O
   0.5340460000000001    0.6660159999999999    0.2065679999999999 O
   0.5340460000000001    0.6660159999999999    0.3732346666666666 O
   0.3606370000000000    0.5156370000000000    0.0858701666666667 O
   0.3606370000000000    0.5156370000000000    0.2525368333333334 O
   0.3606370000000000    0.5156370000000000    0.4192035000000000 O
   0.7773439999999990    0.3032550000000002    0.0484195000000000 O
   0.7773439999999990    0.3032550000000002    0.2150861666666667 O
   0.7773439999999990    0.3032550000000002    0.3817528333333334 O
   0.2641879999999999    0.1172580000000010    0.0713273333333332 O
   0.2641879999999999    0.1172580000000010    0.2379939999999999 O
   0.2641879999999999    0.1172580000000010    0.4046606666666664 O
   0.8271069999999990    0.3857580000000001    0.1148870000000000 O
   0.8271069999999990    0.3857580000000001    0.2815536666666666 O
   0.8271069999999990    0.3857580000000001    0.4482203333333334 O
   0.6517999999999999    0.5210360000000001    0.0278453333333333 O
   0.6517999999999999    0.5210360000000001    0.1945120000000000 O
   0.6517999999999999    0.5210360000000001    0.3611786666666668 O
   0.5605660000000001    0.8361070000000010    0.0493963333333330 O
   0.5605660000000001    0.8361070000000010    0.2160629999999997 O
   0.5605660000000001    0.8361070000000010    0.3827296666666664 O
