Ti90 O180
1.0
  10.7847349425586163    0.0000000000000000    0.0060328200944446
  -1.2247047225377732   10.4583487854001529    9.3482210382165096
   0.0000000000000000    0.0000000000000000   62.9170570674836966
Ti O
90 180
direct
   0.3479379999999991    0.8204740000000001    0.0751333333333332 Ti
   0.3479379999999991    0.8204740000000001    0.2418000000000000 Ti
   0.3479379999999991    0.8204740000000001    0.4084666666666666 Ti
   0.1008690000000000    0.1441720000000008    0.0447989999999998 Ti
   0.1008690000000000    0.1441720000000008    0.2114656666666664 Ti
   0.1008690000000000    0.1441720000000008    0.3781323333333331 Ti
   0.8065249999999994    0.4774350000000001    0.0086158333333332 Ti
   0.8065249999999994    0.4774350000000001    0.1752824999999999 Ti
   0.8065249999999994    0.4774350000000001    0.3419491666666666 Ti
   0.7909490000000001    0.2465539999999999    0.1398076666666666 Ti
   0.7909490000000001    0.2465539999999999    0.3064743333333334 Ti
   0.7909490000000001    0.2465539999999999    0.4731410000000000 Ti
   0.4398120000000000    0.7044890000000010    0.0425054999999998 Ti
   0.4398120000000000    0.7044890000000010    0.2091721666666664 Ti
   0.4398120000000000    0.7044890000000010    0.3758388333333331 Ti
   0.1631409999999990    0.5778510000000001    0.0855119999999999 Ti
   0.1631409999999990    0.5778510000000001    0.2521786666666666 Ti
   0.1631409999999990    0.5778510000000001    0.4188453333333332 Ti
   0.5602509999999991    0.0046750000000008    0.0241501666666665 Ti
   0.5602509999999991    0.0046750000000008    0.1908168333333332 Ti
   0.5602509999999991    0.0046750000000008    0.3574834999999999 Ti
   0.5211030000000000    0.4422479999999999    0.0874735000000000 Ti
   0.5211030000000000    0.4422479999999999    0.2541401666666667 Ti
   0.5211030000000000    0.4422479999999999    0.4208068333333334 Ti
   0.5445340000000000    0.3619320000000000    0.0477679999999998 Ti
   0.5445340000000000    0.3619320000000000    0.2144346666666664 Ti
   0.5445340000000000    0.3619320000000000    0.3811013333333331 Ti
   0.3685410000000002    0.5153020000000010    0.1376544999999996 Ti
   0.3685410000000002    0.5153020000000010    0.3043211666666663 Ti
   0.3685410000000002    0.5153020000000010    0.4709878333333331 Ti
   0.0395639999999990    0.6267690000000000    0.0147133333333333 Ti
   0.0395639999999990    0.6267690000000000    0.1813799999999998 Ti
   0.0395639999999990    0.6267690000000000    0.3480466666666666 Ti
   0.4267149999999991    0.1029350000000001    0.0539269999999999 Ti
   0.4267149999999991    0.1029350000000001    0.2205936666666665 Ti
   0.4267149999999991    0.1029350000000001    0.3872603333333333 Ti
   0.4301250000000000    0.9143660000000000    0.1288228333333332 Ti
   0.4301250000000000    0.9143660000000000    0.2954894999999998 Ti
   0.4301250000000000    0.9143660000000000    0.4621561666666665 Ti
   0.8723019999999996    0.9280300000000002    0.0990141666666666 Ti
   0.8723019999999996    0.9280300000000002    0.2656808333333333 Ti
   0.8723019999999996    0.9280300000000002    0.4323474999999998 Ti
   0.1865880000000000    0.8336970000000010    0.0132613333333329 Ti
   0.1865880000000000    0.8336970000000010    0.1799279999999996 Ti
   0.1865880000000000    0.8336970000000010    0.3465946666666663 Ti
   0.6539610000000002    0.6951250000000000    0.0003141666666664 Ti
   0.6539610000000002    0.6951250000000000    0.1669808333333332 Ti
   0.6539610000000002    0.6951250000000000    0.3336474999999999 Ti
   0.3001759999999999    0.1249779999999997    0.0029536666666667 Ti
   0.3001759999999999    0.1249779999999997    0.1696203333333333 Ti
   0.3001759999999999    0.1249779999999997    0.3362870000000000 Ti
   0.2299519999999999    0.7013280000000000    0.1320378333333333 Ti
   0.2299519999999999    0.7013280000000000    0.2987045000000000 Ti
   0.2299519999999999    0.7013280000000000    0.4653711666666667 Ti
   0.2223479999999999    0.3955090000000000    0.0377013333333333 Ti
   0.2223479999999999    0.3955090000000000    0.2043679999999999 Ti
   0.2223479999999999    0.3955090000000000    0.3710346666666666 Ti
   0.5601389999999993    0.3160910000000000    0.4905308333333333 Ti
   0.5601389999999993    0.3160910000000000    0.1571975000000000 Ti
   0.5601389999999993    0.3160910000000000    0.3238641666666666 Ti
   0.0458439999999990    0.0765540000000000    0.4961958333333333 Ti
   0.0458439999999990    0.0765540000000000    0.1628624999999999 Ti
   0.0458439999999990    0.0765540000000000    0.3295291666666667 Ti
   0.7670669999999988    0.1698310000000008    0.0337618333333332 Ti
   0.7670669999999988    0.1698310000000008    0.2004284999999998 Ti
   0.7670669999999988    0.1698310000000008    0.3670951666666665 Ti
   0.0141669999999990    0.1413960000000010    0.0974614999999998 Ti
   0.0141669999999990    0.1413960000000010    0.2641281666666665 Ti
   0.0141669999999990    0.1413960000000010    0.4307948333333331 Ti
   0.9002000000000000    0.6815009999999999    0.0999271666666667 Ti
   0.9002000000000000    0.6815009999999999    0.2665938333333334 Ti
   0.9002000000000000    0.6815009999999999    0.4332605000000000 Ti
   0.9040300000000002    0.8948880000000002    0.4918111666666666 Ti
   0.9040300000000002    0.8948880000000002    0.1584778333333332 Ti
   0.9040300000000002    0.8948880000000002    0.3251444999999999 Ti
   0.2487680000000000    0.3399710000000001    0.0956723333333333 Ti
   0.2487680000000000    0.3399710000000001    0.2623389999999999 Ti
   0.2487680000000000    0.3399710000000001    0.4290056666666666 Ti
   0.6409000000000002    0.7353340000000003    0.0726160000000000 Ti
   0.6409000000000002    0.7353340000000003    0.2392826666666665 Ti
   0.6409000000000002    0.7353340000000003    0.4059493333333333 Ti
   0.6138279999999990    0.8367120000000000    0.1029269999999999 Ti
   0.6138279999999990    0.8367120000000000    0.2695936666666667 Ti
   0.6138279999999990    0.8367120000000000    0.4362603333333333 Ti
   0.5144870000000001    0.1248010000000002    0.1219706666666666 Ti
   0.5144870000000001    0.1248010000000002    0.2886373333333332 Ti
   0.5144870000000001    0.1248010000000002    0.4553039999999999 Ti
   0.7612200000000001    0.3121970000000009    0.0873831666666663 Ti
   0.7612200000000001    0.3121970000000009    0.2540498333333330 Ti
   0.7612200000000001    0.3121970000000009    0.4207164999999997 Ti
   0.8739560000000002    0.9910120000000001    0.1200623333333333 O
   0.8739560000000002    0.9910120000000001    0.2867290000000000 O
   0.8739560000000002    0.9910120000000001    0.4533956666666666 O
   0.8036150000000000    0.7133380000000001    0.0716536666666664 O
   0.8036150000000000    0.7133380000000001    0.2383203333333331 O
   0.8036150000000000    0.7133380000000001    0.4049869999999996 O
   0.9485159999999990    0.2054380000000000    0.1466980000000000 O
   0.9485159999999990    0.2054380000000000    0.3133646666666665 O
   0.9485159999999990    0.2054380000000000    0.4800313333333334 O
   0.2662120000000000    0.5014220000000009    0.1175973333333331 O
   0.2662120000000000    0.5014220000000009    0.2842639999999999 O
   0.2662120000000000    0.5014220000000009    0.4509306666666665 O
   0.8931300000000003    0.5236930000000000    0.0266435000000000 O
   0.8931300000000003    0.5236930000000000    0.1933101666666666 O
   0.8931300000000003    0.5236930000000000    0.3599768333333333 O
   0.3974479999999990    0.6925810000000001    0.1140841666666666 O
   0.3974479999999990    0.6925810000000001    0.2807508333333334 O
   0.3974479999999990    0.6925810000000001    0.4474175000000000 O
   0.2208709999999990    0.2082220000000000    0.1354425000000000 O
   0.2208709999999990    0.2082220000000000    0.3021091666666667 O
   0.2208709999999990    0.2082220000000000    0.4687758333333334 O
   0.5392760000000002    0.7732650000000000    0.1383704999999998 O
   0.5392760000000002    0.7732650000000000    0.3050371666666665 O
   0.5392760000000002    0.7732650000000000    0.4717038333333332 O
   0.5830440000000002    0.3545419999999999    0.1237574999999999 O
   0.5830440000000002    0.3545419999999999    0.2904241666666666 O
   0.5830440000000002    0.3545419999999999    0.4570908333333332 O
   0.1244670000000000    0.4280370000000000    0.0936823333333331 O
   0.1244670000000000    0.4280370000000000    0.2603489999999997 O
   0.1244670000000000    0.4280370000000000    0.4270156666666663 O
   0.0680549999999990    0.6614070000000000    0.4820313333333333 O
   0.0680549999999990    0.6614070000000000    0.1486979999999999 O
   0.0680549999999990    0.6614070000000000    0.3153646666666665 O
   0.2100409999999990    0.8127910000000002    0.0930659999999999 O
   0.2100409999999990    0.8127910000000002    0.2597326666666666 O
   0.2100409999999990    0.8127910000000002    0.4263993333333332 O
   0.6015980000000001    0.2259720000000008    0.0832936666666665 O
   0.6015980000000001    0.2259720000000008    0.2499603333333331 O
   0.6015980000000001    0.2259720000000008    0.4166269999999998 O
   0.9369569999999992    0.8329630000000001    0.0916863333333331 O
   0.9369569999999992    0.8329630000000001    0.2583529999999998 O
   0.9369569999999992    0.8329630000000001    0.4250196666666664 O
   0.7478680000000001    0.3017190000000008    0.4927558333333332 O
   0.7478680000000001    0.3017190000000008    0.1594224999999998 O
   0.7478680000000001    0.3017190000000008    0.3260891666666665 O
   0.1286800000000000    0.6762770000000001    0.0456163333333333 O
   0.1286800000000000    0.6762770000000001    0.2122830000000000 O
   0.1286800000000000    0.6762770000000001    0.3789496666666666 O
   0.3732089999999991    0.0628869999999998    0.1147673333333332 O
   0.3732089999999991    0.0628869999999998    0.2814339999999999 O
   0.3732089999999991    0.0628869999999998    0.4481006666666665 O
   0.9236479999999990    0.9405430000000010    0.0134883333333332 O
   0.9236479999999990    0.9405430000000010    0.1801549999999999 O
   0.9236479999999990    0.9405430000000010    0.3468216666666665 O
   0.9223730000000000    0.1389929999999998    0.0359325000000000 O
   0.9223730000000000    0.1389929999999998    0.2025991666666666 O
   0.9223730000000000    0.1389929999999998    0.3692658333333333 O
   0.9020089999999999    0.2535110000000002    0.0831646666666665 O
   0.9020089999999999    0.2535110000000002    0.2498313333333330 O
   0.9020089999999999    0.2535110000000002    0.4164979999999997 O
   0.5288700000000001    0.4666590000000002    0.1458661666666664 O
   0.5288700000000001    0.4666590000000002    0.3125328333333331 O
   0.5288700000000001    0.4666590000000002    0.4791994999999998 O
   0.0372740000000000    0.6255510000000000    0.0952725000000000 O
   0.0372740000000000    0.6255510000000000    0.2619391666666667 O
   0.0372740000000000    0.6255510000000000    0.4286058333333333 O
   0.7350010000000000    0.9933010000000002    0.0766904999999999 O
   0.7350010000000000    0.9933010000000002    0.2433571666666666 O
   0.7350010000000000    0.9933010000000002    0.4100238333333331 O
   0.7777479999999998    0.7652890000000001    0.0085886666666665 O
   0.7777479999999998    0.7652890000000001    0.1752553333333331 O
   0.7777479999999998    0.7652890000000001    0.3419219999999997 O
   0.1128660000000000    0.3028190000000008    0.0323534999999999 O
   0.1128660000000000    0.3028190000000008    0.1990201666666665 O
   0.1128660000000000    0.3028190000000008    0.3656868333333332 O
   0.5646110000000001    0.9682820000000010    0.1384716666666664 O
   0.5646110000000001    0.9682820000000010    0.3051383333333331 O
   0.5646110000000001    0.9682820000000010    0.4718049999999997 O
   0.8562139999999991    0.5527519999999999    0.1394971666666666 O
   0.8562139999999991    0.5527519999999999    0.3061638333333332 O
   0.8562139999999991    0.5527519999999999    0.4728305000000000 O
   0.2876890000000000    0.7950530000000001    0.1396928333333332 O
   0.2876890000000000    0.7950530000000001    0.3063594999999999 O
   0.2876890000000000    0.7950530000000001    0.4730261666666665 O
   0.3119490000000000    0.7310080000000001    0.0642506666666666 O
   0.3119490000000000    0.7310080000000001    0.2309173333333333 O
   0.3119490000000000    0.7310080000000001    0.3975840000000000 O
   0.6368840000000000    0.4425230000000001    0.0660523333333333 O
   0.6368840000000000    0.4425230000000001    0.2327190000000000 O
   0.6368840000000000    0.4425230000000001    0.3993856666666666 O
   0.4617560000000002    0.0854470000000001    0.4921024999999999 O
   0.4617560000000002    0.0854470000000001    0.1587691666666666 O
   0.4617560000000002    0.0854470000000001    0.3254358333333333 O
   0.0542060000000000    0.0632090000000008    0.1338613333333332 O
   0.0542060000000000    0.0632090000000008    0.3005279999999999 O
   0.0542060000000000    0.0632090000000008    0.4671946666666665 O
   0.3509839999999990    0.8173380000000001    0.0093078333333331 O
   0.3509839999999990    0.8173380000000001    0.1759744999999998 O
   0.3509839999999990    0.8173380000000001    0.3426411666666665 O
   0.4720379999999992    0.9702880000000003    0.0907171666666665 O
   0.4720379999999992    0.9702880000000003    0.2573838333333331 O
   0.4720379999999992    0.9702880000000003    0.4240504999999998 O
   0.7638309999999990    0.7918760000000000    0.1293800000000000 O
   0.7638309999999990    0.7918760000000000    0.2960466666666667 O
   0.7638309999999990    0.7918760000000000    0.4627133333333333 O
   0.5759319999999999    0.1332180000000011    0.0297853333333331 O
   0.5759319999999999    0.1332180000000011    0.1964519999999998 O
   0.5759319999999999    0.1332180000000011    0.3631186666666664 O
   0.4226640000000000    0.2914620000000000    0.1021084999999998 O
   0.4226640000000000    0.2914620000000000    0.2687751666666665 O
   0.4226640000000000    0.2914620000000000    0.4354418333333331 O
   0.1914030000000000    0.9599750000000002    0.0137911666666666 O
   0.1914030000000000    0.9599750000000002    0.1804578333333333 O
   0.1914030000000000    0.9599750000000002    0.3471244999999999 O
   0.1594519999999990    0.5195680000000009    0.0340773333333330 O
   0.1594519999999990    0.5195680000000009    0.2007439999999997 O
   0.1594519999999990    0.5195680000000009    0.3674106666666663 O
   0.1384619999999999    0.1140920000000008    0.0191948333333330 O
   0.1384619999999999    0.1140920000000008    0.1858614999999997 O
   0.1384619999999999    0.1140920000000008    0.3525281666666664 O
   0.3836949999999998    0.2549929999999998    0.4991066666666665 O
   0.3836949999999998    0.2549929999999998    0.1657733333333332 O
   0.3836949999999998    0.2549929999999998    0.3324399999999998 O
   0.2678300000000000    0.5161840000000010    0.4950348333333331 O
   0.2678300000000000    0.5161840000000010    0.1617014999999997 O
   0.2678300000000000    0.5161840000000010    0.3283681666666665 O
   0.7179100000000000    0.0698520000000002    0.0110943333333333 O
   0.7179100000000000    0.0698520000000002    0.1777609999999999 O
   0.7179100000000000    0.0698520000000002    0.3444276666666666 O
   0.3878410000000001    0.4028710000000002    0.0453426666666666 O
   0.3878410000000001    0.4028710000000002    0.2120093333333333 O
   0.3878410000000001    0.4028710000000002    0.3786760000000000 O
   0.3703140000000000    0.9993610000000012    0.0418938333333330 O
   0.3703140000000000    0.9993610000000012    0.2085604999999996 O
   0.3703140000000000    0.9993610000000012    0.3752271666666664 O
   0.1724170000000000    0.2708770000000001    0.0805109999999998 O
   0.1724170000000000    0.2708770000000001    0.2471776666666664 O
   0.1724170000000000    0.2708770000000001    0.4138443333333331 O
   0.0296230000000000    0.0548199999999999    0.0831408333333333 O
   0.0296230000000000    0.0548199999999999    0.2498074999999999 O
   0.0296230000000000    0.0548199999999999    0.4164741666666665 O
   0.0428710000000000    0.8070050000000001    0.4970463333333333 O
   0.0428710000000000    0.8070050000000001    0.1637129999999999 O
   0.0428710000000000    0.8070050000000001    0.3303796666666666 O
   0.7001120000000000    0.1780890000000001    0.1248028333333331 O
   0.7001120000000000    0.1780890000000001    0.2914694999999998 O
   0.7001120000000000    0.1780890000000001    0.4581361666666665 O
   0.5427529999999994    0.6028380000000010    0.0804579999999998 O
   0.5427529999999994    0.6028380000000010    0.2471246666666664 O
   0.5427529999999994    0.6028380000000010    0.4137913333333331 O
   0.6677839999999992    0.7085150000000000    0.1061609999999999 O
   0.6677839999999992    0.7085150000000000    0.2728276666666666 O
   0.6677839999999992    0.7085150000000000    0.4394943333333333 O
   0.5019669999999992    0.2638999999999998    0.0392378333333333 O
   0.5019669999999992    0.2638999999999998    0.2059045000000000 O
   0.5019669999999992    0.2638999999999998    0.3725711666666666 O
   0.5481920000000000    0.8703910000000000    0.0681201666666666 O
   0.5481920000000000    0.8703910000000000    0.2347868333333333 O
   0.5481920000000000    0.8703910000000000    0.4014535000000000 O
   0.5340460000000001    0.6660159999999999    0.0255523333333332 O
   0.5340460000000001    0.6660159999999999    0.1922189999999998 O
   0.5340460000000001    0.6660159999999999    0.3588856666666665 O
   0.3606370000000000    0.5156370000000000    0.0715211666666666 O
   0.3606370000000000    0.5156370000000000    0.2381878333333333 O
   0.3606370000000000    0.5156370000000000    0.4048545000000000 O
   0.7773439999999990    0.3032550000000002    0.0340704999999999 O
   0.7773439999999990    0.3032550000000002    0.2007371666666666 O
   0.7773439999999990    0.3032550000000002    0.3674038333333333 O
   0.2641879999999999    0.1172580000000010    0.0569783333333331 O
   0.2641879999999999    0.1172580000000010    0.2236449999999998 O
   0.2641879999999999    0.1172580000000010    0.3903116666666664 O
   0.8271069999999990    0.3857580000000001    0.1005379999999999 O
   0.8271069999999990    0.3857580000000001    0.2672046666666666 O
   0.8271069999999990    0.3857580000000001    0.4338713333333334 O
   0.6517999999999999    0.5210360000000001    0.0134963333333333 O
   0.6517999999999999    0.5210360000000001    0.1801629999999999 O
   0.6517999999999999    0.5210360000000001    0.3468296666666667 O
   0.5605660000000001    0.8361070000000010    0.0350473333333329 O
   0.5605660000000001    0.8361070000000010    0.2017139999999996 O
   0.5605660000000001    0.8361070000000010    0.3683806666666664 O
