Ti90 O180
1.0
  10.7847349425586163    0.0000000000000000    0.0060328200944446
  -1.2247047225377732   10.4583487854001529    9.3482210382165096
   0.0000000000000000    0.0000000000000000   62.9170570674836966
Ti O
90 180
direct
   0.3479379999999991    0.8204740000000001    0.4898713333333334 Ti
   0.3479379999999991    0.8204740000000001    0.1565380000000002 Ti
   0.3479379999999991    0.8204740000000001    0.3232046666666668 Ti
   0.1008690000000000    0.1441720000000008    0.4595370000000000 Ti
   0.1008690000000000    0.1441720000000008    0.1262036666666666 Ti
   0.1008690000000000    0.1441720000000008    0.2928703333333332 Ti
   0.8065249999999994    0.4774350000000001    0.4233538333333334 Ti
   0.8065249999999994    0.4774350000000001    0.0900205000000001 Ti
   0.8065249999999994    0.4774350000000001    0.2566871666666667 Ti
   0.7909490000000001    0.2465539999999999    0.0545456666666668 Ti
   0.7909490000000001    0.2465539999999999    0.2212123333333336 Ti
   0.7909490000000001    0.2465539999999999    0.3878790000000002 Ti
   0.4398120000000000    0.7044890000000010    0.4572435000000000 Ti
   0.4398120000000000    0.7044890000000010    0.1239101666666665 Ti
   0.4398120000000000    0.7044890000000010    0.2905768333333332 Ti
   0.1631409999999990    0.5778510000000001    0.0002500000000001 Ti
   0.1631409999999990    0.5778510000000001    0.1669166666666668 Ti
   0.1631409999999990    0.5778510000000001    0.3335833333333334 Ti
   0.5602509999999991    0.0046750000000008    0.4388881666666667 Ti
   0.5602509999999991    0.0046750000000008    0.1055548333333333 Ti
   0.5602509999999991    0.0046750000000008    0.2722215000000001 Ti
   0.5211030000000000    0.4422479999999999    0.0022115000000001 Ti
   0.5211030000000000    0.4422479999999999    0.1688781666666668 Ti
   0.5211030000000000    0.4422479999999999    0.3355448333333335 Ti
   0.5445340000000000    0.3619320000000000    0.4625060000000000 Ti
   0.5445340000000000    0.3619320000000000    0.1291726666666665 Ti
   0.5445340000000000    0.3619320000000000    0.2958393333333332 Ti
   0.3685410000000002    0.5153020000000010    0.0523924999999998 Ti
   0.3685410000000002    0.5153020000000010    0.2190591666666664 Ti
   0.3685410000000002    0.5153020000000010    0.3857258333333332 Ti
   0.0395639999999990    0.6267690000000000    0.4294513333333334 Ti
   0.0395639999999990    0.6267690000000000    0.0961180000000000 Ti
   0.0395639999999990    0.6267690000000000    0.2627846666666667 Ti
   0.4267149999999991    0.1029350000000001    0.4686650000000001 Ti
   0.4267149999999991    0.1029350000000001    0.1353316666666667 Ti
   0.4267149999999991    0.1029350000000001    0.3019983333333334 Ti
   0.4301250000000000    0.9143660000000000    0.0435608333333334 Ti
   0.4301250000000000    0.9143660000000000    0.2102275000000000 Ti
   0.4301250000000000    0.9143660000000000    0.3768941666666666 Ti
   0.8723019999999996    0.9280300000000002    0.0137521666666668 Ti
   0.8723019999999996    0.9280300000000002    0.1804188333333334 Ti
   0.8723019999999996    0.9280300000000002    0.3470855000000000 Ti
   0.1865880000000000    0.8336970000000010    0.4279993333333331 Ti
   0.1865880000000000    0.8336970000000010    0.0946659999999998 Ti
   0.1865880000000000    0.8336970000000010    0.2613326666666665 Ti
   0.6539610000000002    0.6951250000000000    0.4150521666666666 Ti
   0.6539610000000002    0.6951250000000000    0.0817188333333334 Ti
   0.6539610000000002    0.6951250000000000    0.2483855000000000 Ti
   0.3001759999999999    0.1249779999999997    0.4176916666666668 Ti
   0.3001759999999999    0.1249779999999997    0.0843583333333335 Ti
   0.3001759999999999    0.1249779999999997    0.2510250000000002 Ti
   0.2299519999999999    0.7013280000000000    0.0467758333333335 Ti
   0.2299519999999999    0.7013280000000000    0.2134425000000002 Ti
   0.2299519999999999    0.7013280000000000    0.3801091666666668 Ti
   0.2223479999999999    0.3955090000000000    0.4524393333333335 Ti
   0.2223479999999999    0.3955090000000000    0.1191060000000001 Ti
   0.2223479999999999    0.3955090000000000    0.2857726666666668 Ti
   0.5601389999999993    0.3160910000000000    0.4052688333333335 Ti
   0.5601389999999993    0.3160910000000000    0.0719355000000002 Ti
   0.5601389999999993    0.3160910000000000    0.2386021666666668 Ti
   0.0458439999999990    0.0765540000000000    0.4109338333333334 Ti
   0.0458439999999990    0.0765540000000000    0.0776005000000001 Ti
   0.0458439999999990    0.0765540000000000    0.2442671666666668 Ti
   0.7670669999999988    0.1698310000000008    0.4484998333333333 Ti
   0.7670669999999988    0.1698310000000008    0.1151665000000000 Ti
   0.7670669999999988    0.1698310000000008    0.2818331666666667 Ti
   0.0141669999999990    0.1413960000000010    0.0121995000000000 Ti
   0.0141669999999990    0.1413960000000010    0.1788661666666667 Ti
   0.0141669999999990    0.1413960000000010    0.3455328333333333 Ti
   0.9002000000000000    0.6815009999999999    0.0146651666666668 Ti
   0.9002000000000000    0.6815009999999999    0.1813318333333336 Ti
   0.9002000000000000    0.6815009999999999    0.3479985000000002 Ti
   0.9040300000000002    0.8948880000000002    0.4065491666666667 Ti
   0.9040300000000002    0.8948880000000002    0.0732158333333334 Ti
   0.9040300000000002    0.8948880000000002    0.2398825000000001 Ti
   0.2487680000000000    0.3399710000000001    0.0104103333333335 Ti
   0.2487680000000000    0.3399710000000001    0.1770770000000000 Ti
   0.2487680000000000    0.3399710000000001    0.3437436666666667 Ti
   0.6409000000000002    0.7353340000000003    0.4873540000000002 Ti
   0.6409000000000002    0.7353340000000003    0.1540206666666667 Ti
   0.6409000000000002    0.7353340000000003    0.3206873333333334 Ti
   0.6138279999999990    0.8367120000000000    0.0176650000000001 Ti
   0.6138279999999990    0.8367120000000000    0.1843316666666668 Ti
   0.6138279999999990    0.8367120000000000    0.3509983333333335 Ti
   0.5144870000000001    0.1248010000000002    0.0367086666666668 Ti
   0.5144870000000001    0.1248010000000002    0.2033753333333334 Ti
   0.5144870000000001    0.1248010000000002    0.3700420000000001 Ti
   0.7612200000000001    0.3121970000000009    0.0021211666666665 Ti
   0.7612200000000001    0.3121970000000009    0.1687878333333332 Ti
   0.7612200000000001    0.3121970000000009    0.3354544999999999 Ti
   0.8739560000000002    0.9910120000000001    0.0348003333333335 O
   0.8739560000000002    0.9910120000000001    0.2014670000000001 O
   0.8739560000000002    0.9910120000000001    0.3681336666666667 O
   0.8036150000000000    0.7133380000000001    0.4863916666666666 O
   0.8036150000000000    0.7133380000000001    0.1530583333333333 O
   0.8036150000000000    0.7133380000000001    0.3197249999999998 O
   0.9485159999999990    0.2054380000000000    0.0614360000000002 O
   0.9485159999999990    0.2054380000000000    0.2281026666666667 O
   0.9485159999999990    0.2054380000000000    0.3947693333333335 O
   0.2662120000000000    0.5014220000000009    0.0323353333333333 O
   0.2662120000000000    0.5014220000000009    0.1990020000000000 O
   0.2662120000000000    0.5014220000000009    0.3656686666666666 O
   0.8931300000000003    0.5236930000000000    0.4413815000000001 O
   0.8931300000000003    0.5236930000000000    0.1080481666666668 O
   0.8931300000000003    0.5236930000000000    0.2747148333333335 O
   0.3974479999999990    0.6925810000000001    0.0288221666666668 O
   0.3974479999999990    0.6925810000000001    0.1954888333333336 O
   0.3974479999999990    0.6925810000000001    0.3621555000000001 O
   0.2208709999999990    0.2082220000000000    0.0501805000000002 O
   0.2208709999999990    0.2082220000000000    0.2168471666666668 O
   0.2208709999999990    0.2082220000000000    0.3835138333333336 O
   0.5392760000000002    0.7732650000000000    0.0531085000000000 O
   0.5392760000000002    0.7732650000000000    0.2197751666666666 O
   0.5392760000000002    0.7732650000000000    0.3864418333333334 O
   0.5830440000000002    0.3545419999999999    0.0384955000000001 O
   0.5830440000000002    0.3545419999999999    0.2051621666666668 O
   0.5830440000000002    0.3545419999999999    0.3718288333333333 O
   0.1244670000000000    0.4280370000000000    0.0084203333333333 O
   0.1244670000000000    0.4280370000000000    0.1750869999999999 O
   0.1244670000000000    0.4280370000000000    0.3417536666666665 O
   0.0680549999999990    0.6614070000000000    0.3967693333333335 O
   0.0680549999999990    0.6614070000000000    0.0634360000000000 O
   0.0680549999999990    0.6614070000000000    0.2301026666666667 O
   0.2100409999999990    0.8127910000000002    0.0078040000000001 O
   0.2100409999999990    0.8127910000000002    0.1744706666666668 O
   0.2100409999999990    0.8127910000000002    0.3411373333333334 O
   0.6015980000000001    0.2259720000000008    0.4980316666666667 O
   0.6015980000000001    0.2259720000000008    0.1646983333333333 O
   0.6015980000000001    0.2259720000000008    0.3313650000000000 O
   0.9369569999999992    0.8329630000000001    0.0064243333333333 O
   0.9369569999999992    0.8329630000000001    0.1730909999999999 O
   0.9369569999999992    0.8329630000000001    0.3397576666666666 O
   0.7478680000000001    0.3017190000000008    0.4074938333333333 O
   0.7478680000000001    0.3017190000000008    0.0741605000000000 O
   0.7478680000000001    0.3017190000000008    0.2408271666666667 O
   0.1286800000000000    0.6762770000000001    0.4603543333333334 O
   0.1286800000000000    0.6762770000000001    0.1270210000000002 O
   0.1286800000000000    0.6762770000000001    0.2936876666666668 O
   0.3732089999999991    0.0628869999999998    0.0295053333333334 O
   0.3732089999999991    0.0628869999999998    0.1961720000000000 O
   0.3732089999999991    0.0628869999999998    0.3628386666666667 O
   0.9236479999999990    0.9405430000000010    0.4282263333333334 O
   0.9236479999999990    0.9405430000000010    0.0948930000000001 O
   0.9236479999999990    0.9405430000000010    0.2615596666666667 O
   0.9223730000000000    0.1389929999999998    0.4506705000000001 O
   0.9223730000000000    0.1389929999999998    0.1173371666666668 O
   0.9223730000000000    0.1389929999999998    0.2840038333333335 O
   0.9020089999999999    0.2535110000000002    0.4979026666666667 O
   0.9020089999999999    0.2535110000000002    0.1645693333333332 O
   0.9020089999999999    0.2535110000000002    0.3312359999999999 O
   0.5288700000000001    0.4666590000000002    0.0606041666666666 O
   0.5288700000000001    0.4666590000000002    0.2272708333333333 O
   0.5288700000000001    0.4666590000000002    0.3939374999999999 O
   0.0372740000000000    0.6255510000000000    0.0100105000000002 O
   0.0372740000000000    0.6255510000000000    0.1766771666666669 O
   0.0372740000000000    0.6255510000000000    0.3433438333333335 O
   0.7350010000000000    0.9933010000000002    0.4914285000000002 O
   0.7350010000000000    0.9933010000000002    0.1580951666666668 O
   0.7350010000000000    0.9933010000000002    0.3247618333333333 O
   0.7777479999999998    0.7652890000000001    0.4233266666666666 O
   0.7777479999999998    0.7652890000000001    0.0899933333333333 O
   0.7777479999999998    0.7652890000000001    0.2566599999999999 O
   0.1128660000000000    0.3028190000000008    0.4470915000000000 O
   0.1128660000000000    0.3028190000000008    0.1137581666666667 O
   0.1128660000000000    0.3028190000000008    0.2804248333333334 O
   0.5646110000000001    0.9682820000000010    0.0532096666666666 O
   0.5646110000000001    0.9682820000000010    0.2198763333333332 O
   0.5646110000000001    0.9682820000000010    0.3865429999999999 O
   0.8562139999999991    0.5527519999999999    0.0542351666666668 O
   0.8562139999999991    0.5527519999999999    0.2209018333333334 O
   0.8562139999999991    0.5527519999999999    0.3875685000000002 O
   0.2876890000000000    0.7950530000000001    0.0544308333333333 O
   0.2876890000000000    0.7950530000000001    0.2210975000000001 O
   0.2876890000000000    0.7950530000000001    0.3877641666666667 O
   0.3119490000000000    0.7310080000000001    0.4789886666666668 O
   0.3119490000000000    0.7310080000000001    0.1456553333333335 O
   0.3119490000000000    0.7310080000000001    0.3123220000000002 O
   0.6368840000000000    0.4425230000000001    0.4807903333333335 O
   0.6368840000000000    0.4425230000000001    0.1474570000000002 O
   0.6368840000000000    0.4425230000000001    0.3141236666666668 O
   0.4617560000000002    0.0854470000000001    0.4068405000000002 O
   0.4617560000000002    0.0854470000000001    0.0735071666666668 O
   0.4617560000000002    0.0854470000000001    0.2401738333333335 O
   0.0542060000000000    0.0632090000000008    0.0485993333333334 O
   0.0542060000000000    0.0632090000000008    0.2152660000000001 O
   0.0542060000000000    0.0632090000000008    0.3819326666666667 O
   0.3509839999999990    0.8173380000000001    0.4240458333333333 O
   0.3509839999999990    0.8173380000000001    0.0907125000000000 O
   0.3509839999999990    0.8173380000000001    0.2573791666666667 O
   0.4720379999999992    0.9702880000000003    0.0054551666666666 O
   0.4720379999999992    0.9702880000000003    0.1721218333333333 O
   0.4720379999999992    0.9702880000000003    0.3387884999999999 O
   0.7638309999999990    0.7918760000000000    0.0441180000000002 O
   0.7638309999999990    0.7918760000000000    0.2107846666666668 O
   0.7638309999999990    0.7918760000000000    0.3774513333333335 O
   0.5759319999999999    0.1332180000000011    0.4445233333333333 O
   0.5759319999999999    0.1332180000000011    0.1111900000000000 O
   0.5759319999999999    0.1332180000000011    0.2778566666666665 O
   0.4226640000000000    0.2914620000000000    0.0168465000000000 O
   0.4226640000000000    0.2914620000000000    0.1835131666666667 O
   0.4226640000000000    0.2914620000000000    0.3501798333333333 O
   0.1914030000000000    0.9599750000000002    0.4285291666666667 O
   0.1914030000000000    0.9599750000000002    0.0951958333333335 O
   0.1914030000000000    0.9599750000000002    0.2618625000000001 O
   0.1594519999999990    0.5195680000000009    0.4488153333333331 O
   0.1594519999999990    0.5195680000000009    0.1154819999999999 O
   0.1594519999999990    0.5195680000000009    0.2821486666666665 O
   0.1384619999999999    0.1140920000000008    0.4339328333333332 O
   0.1384619999999999    0.1140920000000008    0.1005994999999999 O
   0.1384619999999999    0.1140920000000008    0.2672661666666665 O
   0.3836949999999998    0.2549929999999998    0.4138446666666666 O
   0.3836949999999998    0.2549929999999998    0.0805113333333334 O
   0.3836949999999998    0.2549929999999998    0.2471780000000000 O
   0.2678300000000000    0.5161840000000010    0.4097728333333333 O
   0.2678300000000000    0.5161840000000010    0.0764394999999999 O
   0.2678300000000000    0.5161840000000010    0.2431061666666666 O
   0.7179100000000000    0.0698520000000002    0.4258323333333335 O
   0.7179100000000000    0.0698520000000002    0.0924990000000001 O
   0.7179100000000000    0.0698520000000002    0.2591656666666668 O
   0.3878410000000001    0.4028710000000002    0.4600806666666668 O
   0.3878410000000001    0.4028710000000002    0.1267473333333335 O
   0.3878410000000001    0.4028710000000002    0.2934140000000002 O
   0.3703140000000000    0.9993610000000012    0.4566318333333331 O
   0.3703140000000000    0.9993610000000012    0.1232984999999998 O
   0.3703140000000000    0.9993610000000012    0.2899651666666666 O
   0.1724170000000000    0.2708770000000001    0.4952490000000000 O
   0.1724170000000000    0.2708770000000001    0.1619156666666666 O
   0.1724170000000000    0.2708770000000001    0.3285823333333333 O
   0.0296230000000000    0.0548199999999999    0.4978788333333335 O
   0.0296230000000000    0.0548199999999999    0.1645455000000001 O
   0.0296230000000000    0.0548199999999999    0.3312121666666667 O
   0.0428710000000000    0.8070050000000001    0.4117843333333335 O
   0.0428710000000000    0.8070050000000001    0.0784510000000001 O
   0.0428710000000000    0.8070050000000001    0.2451176666666668 O
   0.7001120000000000    0.1780890000000001    0.0395408333333333 O
   0.7001120000000000    0.1780890000000001    0.2062074999999999 O
   0.7001120000000000    0.1780890000000001    0.3728741666666667 O
   0.5427529999999994    0.6028380000000010    0.4951959999999999 O
   0.5427529999999994    0.6028380000000010    0.1618626666666666 O
   0.5427529999999994    0.6028380000000010    0.3285293333333333 O
   0.6677839999999992    0.7085150000000000    0.0208990000000001 O
   0.6677839999999992    0.7085150000000000    0.1875656666666668 O
   0.6677839999999992    0.7085150000000000    0.3542323333333334 O
   0.5019669999999992    0.2638999999999998    0.4539758333333335 O
   0.5019669999999992    0.2638999999999998    0.1206425000000002 O
   0.5019669999999992    0.2638999999999998    0.2873091666666668 O
   0.5481920000000000    0.8703910000000000    0.4828581666666668 O
   0.5481920000000000    0.8703910000000000    0.1495248333333334 O
   0.5481920000000000    0.8703910000000000    0.3161915000000002 O
   0.5340460000000001    0.6660159999999999    0.4402903333333333 O
   0.5340460000000001    0.6660159999999999    0.1069570000000000 O
   0.5340460000000001    0.6660159999999999    0.2736236666666667 O
   0.3606370000000000    0.5156370000000000    0.4862591666666668 O
   0.3606370000000000    0.5156370000000000    0.1529258333333335 O
   0.3606370000000000    0.5156370000000000    0.3195925000000001 O
   0.7773439999999990    0.3032550000000002    0.4488085000000001 O
   0.7773439999999990    0.3032550000000002    0.1154751666666668 O
   0.7773439999999990    0.3032550000000002    0.2821418333333335 O
   0.2641879999999999    0.1172580000000010    0.4717163333333333 O
   0.2641879999999999    0.1172580000000010    0.1383830000000000 O
   0.2641879999999999    0.1172580000000010    0.3050496666666666 O
   0.8271069999999990    0.3857580000000001    0.0152760000000001 O
   0.8271069999999990    0.3857580000000001    0.1819426666666668 O
   0.8271069999999990    0.3857580000000001    0.3486093333333335 O
   0.6517999999999999    0.5210360000000001    0.4282343333333334 O
   0.6517999999999999    0.5210360000000001    0.0949010000000001 O
   0.6517999999999999    0.5210360000000001    0.2615676666666669 O
   0.5605660000000001    0.8361070000000010    0.4497853333333331 O
   0.5605660000000001    0.8361070000000010    0.1164519999999998 O
   0.5605660000000001    0.8361070000000010    0.2831186666666665 O
