Ti90 O180
1.0
  10.7847349425586163    0.0000000000000000    0.0060328200944446
  -1.2247047225377732   10.4583487854001529    9.3482210382165096
   0.0000000000000000    0.0000000000000000   62.9170570674836966
Ti O
90 180
direct
   0.3479379999999991    0.8204740000000001    0.4965590833333334 Ti
   0.3479379999999991    0.8204740000000001    0.1632257500000001 Ti
   0.3479379999999991    0.8204740000000001    0.3298924166666668 Ti
   0.1008690000000000    0.1441720000000008    0.4662247500000000 Ti
   0.1008690000000000    0.1441720000000008    0.1328914166666666 Ti
   0.1008690000000000    0.1441720000000008    0.2995580833333332 Ti
   0.8065249999999994    0.4774350000000001    0.4300415833333334 Ti
   0.8065249999999994    0.4774350000000001    0.0967082500000001 Ti
   0.8065249999999994    0.4774350000000001    0.2633749166666667 Ti
   0.7909490000000001    0.2465539999999999    0.0612334166666668 Ti
   0.7909490000000001    0.2465539999999999    0.2279000833333335 Ti
   0.7909490000000001    0.2465539999999999    0.3945667500000002 Ti
   0.4398120000000000    0.7044890000000010    0.4639312499999999 Ti
   0.4398120000000000    0.7044890000000010    0.1305979166666665 Ti
   0.4398120000000000    0.7044890000000010    0.2972645833333332 Ti
   0.1631409999999990    0.5778510000000001    0.0069377500000001 Ti
   0.1631409999999990    0.5778510000000001    0.1736044166666667 Ti
   0.1631409999999990    0.5778510000000001    0.3402710833333333 Ti
   0.5602509999999991    0.0046750000000008    0.4455759166666667 Ti
   0.5602509999999991    0.0046750000000008    0.1122425833333333 Ti
   0.5602509999999991    0.0046750000000008    0.2789092500000000 Ti
   0.5211030000000000    0.4422479999999999    0.0088992500000001 Ti
   0.5211030000000000    0.4422479999999999    0.1755659166666668 Ti
   0.5211030000000000    0.4422479999999999    0.3422325833333335 Ti
   0.5445340000000000    0.3619320000000000    0.4691937500000000 Ti
   0.5445340000000000    0.3619320000000000    0.1358604166666665 Ti
   0.5445340000000000    0.3619320000000000    0.3025270833333332 Ti
   0.3685410000000002    0.5153020000000010    0.0590802499999998 Ti
   0.3685410000000002    0.5153020000000010    0.2257469166666664 Ti
   0.3685410000000002    0.5153020000000010    0.3924135833333332 Ti
   0.0395639999999990    0.6267690000000000    0.4361390833333334 Ti
   0.0395639999999990    0.6267690000000000    0.1028057500000000 Ti
   0.0395639999999990    0.6267690000000000    0.2694724166666667 Ti
   0.4267149999999991    0.1029350000000001    0.4753527500000001 Ti
   0.4267149999999991    0.1029350000000001    0.1420194166666666 Ti
   0.4267149999999991    0.1029350000000001    0.3086860833333334 Ti
   0.4301250000000000    0.9143660000000000    0.0502485833333333 Ti
   0.4301250000000000    0.9143660000000000    0.2169152500000000 Ti
   0.4301250000000000    0.9143660000000000    0.3835819166666666 Ti
   0.8723019999999996    0.9280300000000002    0.0204399166666668 Ti
   0.8723019999999996    0.9280300000000002    0.1871065833333334 Ti
   0.8723019999999996    0.9280300000000002    0.3537732499999999 Ti
   0.1865880000000000    0.8336970000000010    0.4346870833333331 Ti
   0.1865880000000000    0.8336970000000010    0.1013537499999998 Ti
   0.1865880000000000    0.8336970000000010    0.2680204166666664 Ti
   0.6539610000000002    0.6951250000000000    0.4217399166666666 Ti
   0.6539610000000002    0.6951250000000000    0.0884065833333333 Ti
   0.6539610000000002    0.6951250000000000    0.2550732500000000 Ti
   0.3001759999999999    0.1249779999999997    0.4243794166666668 Ti
   0.3001759999999999    0.1249779999999997    0.0910460833333335 Ti
   0.3001759999999999    0.1249779999999997    0.2577127500000002 Ti
   0.2299519999999999    0.7013280000000000    0.0534635833333335 Ti
   0.2299519999999999    0.7013280000000000    0.2201302500000002 Ti
   0.2299519999999999    0.7013280000000000    0.3867969166666668 Ti
   0.2223479999999999    0.3955090000000000    0.4591270833333335 Ti
   0.2223479999999999    0.3955090000000000    0.1257937500000001 Ti
   0.2223479999999999    0.3955090000000000    0.2924604166666668 Ti
   0.5601389999999993    0.3160910000000000    0.4119565833333334 Ti
   0.5601389999999993    0.3160910000000000    0.0786232500000001 Ti
   0.5601389999999993    0.3160910000000000    0.2452899166666667 Ti
   0.0458439999999990    0.0765540000000000    0.4176215833333334 Ti
   0.0458439999999990    0.0765540000000000    0.0842882500000001 Ti
   0.0458439999999990    0.0765540000000000    0.2509549166666668 Ti
   0.7670669999999988    0.1698310000000008    0.4551875833333333 Ti
   0.7670669999999988    0.1698310000000008    0.1218542500000000 Ti
   0.7670669999999988    0.1698310000000008    0.2885209166666667 Ti
   0.0141669999999990    0.1413960000000010    0.0188872499999999 Ti
   0.0141669999999990    0.1413960000000010    0.1855539166666666 Ti
   0.0141669999999990    0.1413960000000010    0.3522205833333333 Ti
   0.9002000000000000    0.6815009999999999    0.0213529166666668 Ti
   0.9002000000000000    0.6815009999999999    0.1880195833333335 Ti
   0.9002000000000000    0.6815009999999999    0.3546862500000002 Ti
   0.9040300000000002    0.8948880000000002    0.4132369166666667 Ti
   0.9040300000000002    0.8948880000000002    0.0799035833333334 Ti
   0.9040300000000002    0.8948880000000002    0.2465702500000001 Ti
   0.2487680000000000    0.3399710000000001    0.0170980833333334 Ti
   0.2487680000000000    0.3399710000000001    0.1837647500000000 Ti
   0.2487680000000000    0.3399710000000001    0.3504314166666667 Ti
   0.6409000000000002    0.7353340000000003    0.4940417500000001 Ti
   0.6409000000000002    0.7353340000000003    0.1607084166666667 Ti
   0.6409000000000002    0.7353340000000003    0.3273750833333334 Ti
   0.6138279999999990    0.8367120000000000    0.0243527500000000 Ti
   0.6138279999999990    0.8367120000000000    0.1910194166666668 Ti
   0.6138279999999990    0.8367120000000000    0.3576860833333334 Ti
   0.5144870000000001    0.1248010000000002    0.0433964166666667 Ti
   0.5144870000000001    0.1248010000000002    0.2100630833333334 Ti
   0.5144870000000001    0.1248010000000002    0.3767297500000001 Ti
   0.7612200000000001    0.3121970000000009    0.0088089166666665 Ti
   0.7612200000000001    0.3121970000000009    0.1754755833333332 Ti
   0.7612200000000001    0.3121970000000009    0.3421422499999999 Ti
   0.8739560000000002    0.9910120000000001    0.0414880833333335 O
   0.8739560000000002    0.9910120000000001    0.2081547500000001 O
   0.8739560000000002    0.9910120000000001    0.3748214166666667 O
   0.8036150000000000    0.7133380000000001    0.4930794166666665 O
   0.8036150000000000    0.7133380000000001    0.1597460833333333 O
   0.8036150000000000    0.7133380000000001    0.3264127499999997 O
   0.9485159999999990    0.2054380000000000    0.0681237500000001 O
   0.9485159999999990    0.2054380000000000    0.2347904166666666 O
   0.9485159999999990    0.2054380000000000    0.4014570833333335 O
   0.2662120000000000    0.5014220000000009    0.0390230833333333 O
   0.2662120000000000    0.5014220000000009    0.2056897500000000 O
   0.2662120000000000    0.5014220000000009    0.3723564166666666 O
   0.8931300000000003    0.5236930000000000    0.4480692500000001 O
   0.8931300000000003    0.5236930000000000    0.1147359166666667 O
   0.8931300000000003    0.5236930000000000    0.2814025833333335 O
   0.3974479999999990    0.6925810000000001    0.0355099166666667 O
   0.3974479999999990    0.6925810000000001    0.2021765833333335 O
   0.3974479999999990    0.6925810000000001    0.3688432500000001 O
   0.2208709999999990    0.2082220000000000    0.0568682500000001 O
   0.2208709999999990    0.2082220000000000    0.2235349166666668 O
   0.2208709999999990    0.2082220000000000    0.3902015833333335 O
   0.5392760000000002    0.7732650000000000    0.0597962500000000 O
   0.5392760000000002    0.7732650000000000    0.2264629166666666 O
   0.5392760000000002    0.7732650000000000    0.3931295833333334 O
   0.5830440000000002    0.3545419999999999    0.0451832500000001 O
   0.5830440000000002    0.3545419999999999    0.2118499166666668 O
   0.5830440000000002    0.3545419999999999    0.3785165833333333 O
   0.1244670000000000    0.4280370000000000    0.0151080833333333 O
   0.1244670000000000    0.4280370000000000    0.1817747499999998 O
   0.1244670000000000    0.4280370000000000    0.3484414166666665 O
   0.0680549999999990    0.6614070000000000    0.4034570833333334 O
   0.0680549999999990    0.6614070000000000    0.0701237500000000 O
   0.0680549999999990    0.6614070000000000    0.2367904166666666 O
   0.2100409999999990    0.8127910000000002    0.0144917500000001 O
   0.2100409999999990    0.8127910000000002    0.1811584166666667 O
   0.2100409999999990    0.8127910000000002    0.3478250833333334 O
   0.6015980000000001    0.2259720000000008    0.0047194166666666 O
   0.6015980000000001    0.2259720000000008    0.1713860833333333 O
   0.6015980000000001    0.2259720000000008    0.3380527499999999 O
   0.9369569999999992    0.8329630000000001    0.0131120833333333 O
   0.9369569999999992    0.8329630000000001    0.1797787499999999 O
   0.9369569999999992    0.8329630000000001    0.3464454166666665 O
   0.7478680000000001    0.3017190000000008    0.4141815833333333 O
   0.7478680000000001    0.3017190000000008    0.0808482500000000 O
   0.7478680000000001    0.3017190000000008    0.2475149166666667 O
   0.1286800000000000    0.6762770000000001    0.4670420833333334 O
   0.1286800000000000    0.6762770000000001    0.1337087500000001 O
   0.1286800000000000    0.6762770000000001    0.3003754166666668 O
   0.3732089999999991    0.0628869999999998    0.0361930833333333 O
   0.3732089999999991    0.0628869999999998    0.2028597500000000 O
   0.3732089999999991    0.0628869999999998    0.3695264166666666 O
   0.9236479999999990    0.9405430000000010    0.4349140833333334 O
   0.9236479999999990    0.9405430000000010    0.1015807500000000 O
   0.9236479999999990    0.9405430000000010    0.2682474166666666 O
   0.9223730000000000    0.1389929999999998    0.4573582500000001 O
   0.9223730000000000    0.1389929999999998    0.1240249166666668 O
   0.9223730000000000    0.1389929999999998    0.2906915833333334 O
   0.9020089999999999    0.2535110000000002    0.0045904166666666 O
   0.9020089999999999    0.2535110000000002    0.1712570833333332 O
   0.9020089999999999    0.2535110000000002    0.3379237499999999 O
   0.5288700000000001    0.4666590000000002    0.0672919166666666 O
   0.5288700000000001    0.4666590000000002    0.2339585833333333 O
   0.5288700000000001    0.4666590000000002    0.4006252499999999 O
   0.0372740000000000    0.6255510000000000    0.0166982500000002 O
   0.0372740000000000    0.6255510000000000    0.1833649166666668 O
   0.0372740000000000    0.6255510000000000    0.3500315833333334 O
   0.7350010000000000    0.9933010000000002    0.4981162500000001 O
   0.7350010000000000    0.9933010000000002    0.1647829166666668 O
   0.7350010000000000    0.9933010000000002    0.3314495833333333 O
   0.7777479999999998    0.7652890000000001    0.4300144166666666 O
   0.7777479999999998    0.7652890000000001    0.0966810833333333 O
   0.7777479999999998    0.7652890000000001    0.2633477499999999 O
   0.1128660000000000    0.3028190000000008    0.4537792500000000 O
   0.1128660000000000    0.3028190000000008    0.1204459166666667 O
   0.1128660000000000    0.3028190000000008    0.2871125833333333 O
   0.5646110000000001    0.9682820000000010    0.0598974166666666 O
   0.5646110000000001    0.9682820000000010    0.2265640833333332 O
   0.5646110000000001    0.9682820000000010    0.3932307499999999 O
   0.8562139999999991    0.5527519999999999    0.0609229166666667 O
   0.8562139999999991    0.5527519999999999    0.2275895833333334 O
   0.8562139999999991    0.5527519999999999    0.3942562500000002 O
   0.2876890000000000    0.7950530000000001    0.0611185833333333 O
   0.2876890000000000    0.7950530000000001    0.2277852500000000 O
   0.2876890000000000    0.7950530000000001    0.3944519166666667 O
   0.3119490000000000    0.7310080000000001    0.4856764166666668 O
   0.3119490000000000    0.7310080000000001    0.1523430833333335 O
   0.3119490000000000    0.7310080000000001    0.3190097500000001 O
   0.6368840000000000    0.4425230000000001    0.4874780833333334 O
   0.6368840000000000    0.4425230000000001    0.1541447500000001 O
   0.6368840000000000    0.4425230000000001    0.3208114166666668 O
   0.4617560000000002    0.0854470000000001    0.4135282500000001 O
   0.4617560000000002    0.0854470000000001    0.0801949166666668 O
   0.4617560000000002    0.0854470000000001    0.2468615833333334 O
   0.0542060000000000    0.0632090000000008    0.0552870833333333 O
   0.0542060000000000    0.0632090000000008    0.2219537500000000 O
   0.0542060000000000    0.0632090000000008    0.3886204166666667 O
   0.3509839999999990    0.8173380000000001    0.4307335833333333 O
   0.3509839999999990    0.8173380000000001    0.0974002500000000 O
   0.3509839999999990    0.8173380000000001    0.2640669166666666 O
   0.4720379999999992    0.9702880000000003    0.0121429166666666 O
   0.4720379999999992    0.9702880000000003    0.1788095833333333 O
   0.4720379999999992    0.9702880000000003    0.3454762499999999 O
   0.7638309999999990    0.7918760000000000    0.0508057500000001 O
   0.7638309999999990    0.7918760000000000    0.2174724166666668 O
   0.7638309999999990    0.7918760000000000    0.3841390833333335 O
   0.5759319999999999    0.1332180000000011    0.4512110833333333 O
   0.5759319999999999    0.1332180000000011    0.1178777499999999 O
   0.5759319999999999    0.1332180000000011    0.2845444166666665 O
   0.4226640000000000    0.2914620000000000    0.0235342500000000 O
   0.4226640000000000    0.2914620000000000    0.1902009166666666 O
   0.4226640000000000    0.2914620000000000    0.3568675833333332 O
   0.1914030000000000    0.9599750000000002    0.4352169166666667 O
   0.1914030000000000    0.9599750000000002    0.1018835833333334 O
   0.1914030000000000    0.9599750000000002    0.2685502500000001 O
   0.1594519999999990    0.5195680000000009    0.4555030833333331 O
   0.1594519999999990    0.5195680000000009    0.1221697499999998 O
   0.1594519999999990    0.5195680000000009    0.2888364166666665 O
   0.1384619999999999    0.1140920000000008    0.4406205833333331 O
   0.1384619999999999    0.1140920000000008    0.1072872499999999 O
   0.1384619999999999    0.1140920000000008    0.2739539166666665 O
   0.3836949999999998    0.2549929999999998    0.4205324166666666 O
   0.3836949999999998    0.2549929999999998    0.0871990833333333 O
   0.3836949999999998    0.2549929999999998    0.2538657500000000 O
   0.2678300000000000    0.5161840000000010    0.4164605833333332 O
   0.2678300000000000    0.5161840000000010    0.0831272499999999 O
   0.2678300000000000    0.5161840000000010    0.2497939166666666 O
   0.7179100000000000    0.0698520000000002    0.4325200833333335 O
   0.7179100000000000    0.0698520000000002    0.0991867500000001 O
   0.7179100000000000    0.0698520000000002    0.2658534166666667 O
   0.3878410000000001    0.4028710000000002    0.4667684166666667 O
   0.3878410000000001    0.4028710000000002    0.1334350833333334 O
   0.3878410000000001    0.4028710000000002    0.3001017500000002 O
   0.3703140000000000    0.9993610000000012    0.4633195833333331 O
   0.3703140000000000    0.9993610000000012    0.1299862499999997 O
   0.3703140000000000    0.9993610000000012    0.2966529166666666 O
   0.1724170000000000    0.2708770000000001    0.0019367500000000 O
   0.1724170000000000    0.2708770000000001    0.1686034166666666 O
   0.1724170000000000    0.2708770000000001    0.3352700833333333 O
   0.0296230000000000    0.0548199999999999    0.0045665833333335 O
   0.0296230000000000    0.0548199999999999    0.1712332500000000 O
   0.0296230000000000    0.0548199999999999    0.3378999166666666 O
   0.0428710000000000    0.8070050000000001    0.4184720833333335 O
   0.0428710000000000    0.8070050000000001    0.0851387500000001 O
   0.0428710000000000    0.8070050000000001    0.2518054166666668 O
   0.7001120000000000    0.1780890000000001    0.0462285833333333 O
   0.7001120000000000    0.1780890000000001    0.2128952499999999 O
   0.7001120000000000    0.1780890000000001    0.3795619166666666 O
   0.5427529999999994    0.6028380000000010    0.0018837499999999 O
   0.5427529999999994    0.6028380000000010    0.1685504166666666 O
   0.5427529999999994    0.6028380000000010    0.3352170833333332 O
   0.6677839999999992    0.7085150000000000    0.0275867500000001 O
   0.6677839999999992    0.7085150000000000    0.1942534166666668 O
   0.6677839999999992    0.7085150000000000    0.3609200833333334 O
   0.5019669999999992    0.2638999999999998    0.4606635833333335 O
   0.5019669999999992    0.2638999999999998    0.1273302500000001 O
   0.5019669999999992    0.2638999999999998    0.2939969166666667 O
   0.5481920000000000    0.8703910000000000    0.4895459166666667 O
   0.5481920000000000    0.8703910000000000    0.1562125833333334 O
   0.5481920000000000    0.8703910000000000    0.3228792500000002 O
   0.5340460000000001    0.6660159999999999    0.4469780833333333 O
   0.5340460000000001    0.6660159999999999    0.1136447500000000 O
   0.5340460000000001    0.6660159999999999    0.2803114166666667 O
   0.3606370000000000    0.5156370000000000    0.4929469166666668 O
   0.3606370000000000    0.5156370000000000    0.1596135833333335 O
   0.3606370000000000    0.5156370000000000    0.3262802500000000 O
   0.7773439999999990    0.3032550000000002    0.4554962500000000 O
   0.7773439999999990    0.3032550000000002    0.1221629166666667 O
   0.7773439999999990    0.3032550000000002    0.2888295833333334 O
   0.2641879999999999    0.1172580000000010    0.4784040833333333 O
   0.2641879999999999    0.1172580000000010    0.1450707499999999 O
   0.2641879999999999    0.1172580000000010    0.3117374166666665 O
   0.8271069999999990    0.3857580000000001    0.0219637500000001 O
   0.8271069999999990    0.3857580000000001    0.1886304166666667 O
   0.8271069999999990    0.3857580000000001    0.3552970833333335 O
   0.6517999999999999    0.5210360000000001    0.4349220833333334 O
   0.6517999999999999    0.5210360000000001    0.1015887500000000 O
   0.6517999999999999    0.5210360000000001    0.2682554166666669 O
   0.5605660000000001    0.8361070000000010    0.4564730833333331 O
   0.5605660000000001    0.8361070000000010    0.1231397499999998 O
   0.5605660000000001    0.8361070000000010    0.2898064166666665 O
