Ti90 O180
1.0
  10.7847349425586163    0.0000000000000000    0.0060328200944446
  -1.2247047225377732   10.4583487854001529    9.3482210382165096
   0.0000000000000000    0.0000000000000000   62.9170570674836966
Ti O
90 180
direct
   0.3479379999999991    0.8204740000000001    0.0053126666666666 Ti
   0.3479379999999991    0.8204740000000001    0.1719793333333334 Ti
   0.3479379999999991    0.8204740000000001    0.3386460000000000 Ti
   0.1008690000000000    0.1441720000000008    0.4749783333333332 Ti
   0.1008690000000000    0.1441720000000008    0.1416449999999998 Ti
   0.1008690000000000    0.1441720000000008    0.3083116666666664 Ti
   0.8065249999999994    0.4774350000000001    0.4387951666666666 Ti
   0.8065249999999994    0.4774350000000001    0.1054618333333333 Ti
   0.8065249999999994    0.4774350000000001    0.2721284999999999 Ti
   0.7909490000000001    0.2465539999999999    0.0699870000000000 Ti
   0.7909490000000001    0.2465539999999999    0.2366536666666668 Ti
   0.7909490000000001    0.2465539999999999    0.4033203333333334 Ti
   0.4398120000000000    0.7044890000000010    0.4726848333333332 Ti
   0.4398120000000000    0.7044890000000010    0.1393514999999997 Ti
   0.4398120000000000    0.7044890000000010    0.3060181666666664 Ti
   0.1631409999999990    0.5778510000000001    0.0156913333333333 Ti
   0.1631409999999990    0.5778510000000001    0.1823580000000000 Ti
   0.1631409999999990    0.5778510000000001    0.3490246666666666 Ti
   0.5602509999999991    0.0046750000000008    0.4543294999999999 Ti
   0.5602509999999991    0.0046750000000008    0.1209961666666665 Ti
   0.5602509999999991    0.0046750000000008    0.2876628333333333 Ti
   0.5211030000000000    0.4422479999999999    0.0176528333333333 Ti
   0.5211030000000000    0.4422479999999999    0.1843195000000000 Ti
   0.5211030000000000    0.4422479999999999    0.3509861666666667 Ti
   0.5445340000000000    0.3619320000000000    0.4779473333333332 Ti
   0.5445340000000000    0.3619320000000000    0.1446139999999997 Ti
   0.5445340000000000    0.3619320000000000    0.3112806666666664 Ti
   0.3685410000000002    0.5153020000000010    0.0678338333333330 Ti
   0.3685410000000002    0.5153020000000010    0.2345004999999996 Ti
   0.3685410000000002    0.5153020000000010    0.4011671666666664 Ti
   0.0395639999999990    0.6267690000000000    0.4448926666666666 Ti
   0.0395639999999990    0.6267690000000000    0.1115593333333332 Ti
   0.0395639999999990    0.6267690000000000    0.2782259999999999 Ti
   0.4267149999999991    0.1029350000000001    0.4841063333333333 Ti
   0.4267149999999991    0.1029350000000001    0.1507729999999999 Ti
   0.4267149999999991    0.1029350000000001    0.3174396666666666 Ti
   0.4301250000000000    0.9143660000000000    0.0590021666666666 Ti
   0.4301250000000000    0.9143660000000000    0.2256688333333332 Ti
   0.4301250000000000    0.9143660000000000    0.3923354999999998 Ti
   0.8723019999999996    0.9280300000000002    0.0291935000000000 Ti
   0.8723019999999996    0.9280300000000002    0.1958601666666666 Ti
   0.8723019999999996    0.9280300000000002    0.3625268333333332 Ti
   0.1865880000000000    0.8336970000000010    0.4434406666666663 Ti
   0.1865880000000000    0.8336970000000010    0.1101073333333330 Ti
   0.1865880000000000    0.8336970000000010    0.2767739999999997 Ti
   0.6539610000000002    0.6951250000000000    0.4304934999999998 Ti
   0.6539610000000002    0.6951250000000000    0.0971601666666665 Ti
   0.6539610000000002    0.6951250000000000    0.2638268333333332 Ti
   0.3001759999999999    0.1249779999999997    0.4331330000000000 Ti
   0.3001759999999999    0.1249779999999997    0.0997996666666667 Ti
   0.3001759999999999    0.1249779999999997    0.2664663333333334 Ti
   0.2299519999999999    0.7013280000000000    0.0622171666666667 Ti
   0.2299519999999999    0.7013280000000000    0.2288838333333334 Ti
   0.2299519999999999    0.7013280000000000    0.3955505000000000 Ti
   0.2223479999999999    0.3955090000000000    0.4678806666666667 Ti
   0.2223479999999999    0.3955090000000000    0.1345473333333333 Ti
   0.2223479999999999    0.3955090000000000    0.3012140000000000 Ti
   0.5601389999999993    0.3160910000000000    0.4207101666666667 Ti
   0.5601389999999993    0.3160910000000000    0.0873768333333333 Ti
   0.5601389999999993    0.3160910000000000    0.2540435000000000 Ti
   0.0458439999999990    0.0765540000000000    0.4263751666666666 Ti
   0.0458439999999990    0.0765540000000000    0.0930418333333333 Ti
   0.0458439999999990    0.0765540000000000    0.2597085000000000 Ti
   0.7670669999999988    0.1698310000000008    0.4639411666666665 Ti
   0.7670669999999988    0.1698310000000008    0.1306078333333332 Ti
   0.7670669999999988    0.1698310000000008    0.2972744999999999 Ti
   0.0141669999999990    0.1413960000000010    0.0276408333333332 Ti
   0.0141669999999990    0.1413960000000010    0.1943074999999999 Ti
   0.0141669999999990    0.1413960000000010    0.3609741666666665 Ti
   0.9002000000000000    0.6815009999999999    0.0301065000000000 Ti
   0.9002000000000000    0.6815009999999999    0.1967731666666668 Ti
   0.9002000000000000    0.6815009999999999    0.3634398333333334 Ti
   0.9040300000000002    0.8948880000000002    0.4219904999999999 Ti
   0.9040300000000002    0.8948880000000002    0.0886571666666666 Ti
   0.9040300000000002    0.8948880000000002    0.2553238333333333 Ti
   0.2487680000000000    0.3399710000000001    0.0258516666666667 Ti
   0.2487680000000000    0.3399710000000001    0.1925183333333332 Ti
   0.2487680000000000    0.3399710000000001    0.3591849999999999 Ti
   0.6409000000000002    0.7353340000000003    0.0027953333333333 Ti
   0.6409000000000002    0.7353340000000003    0.1694619999999999 Ti
   0.6409000000000002    0.7353340000000003    0.3361286666666666 Ti
   0.6138279999999990    0.8367120000000000    0.0331063333333333 Ti
   0.6138279999999990    0.8367120000000000    0.1997730000000000 Ti
   0.6138279999999990    0.8367120000000000    0.3664396666666667 Ti
   0.5144870000000001    0.1248010000000002    0.0521500000000000 Ti
   0.5144870000000001    0.1248010000000002    0.2188166666666666 Ti
   0.5144870000000001    0.1248010000000002    0.3854833333333333 Ti
   0.7612200000000001    0.3121970000000009    0.0175624999999997 Ti
   0.7612200000000001    0.3121970000000009    0.1842291666666664 Ti
   0.7612200000000001    0.3121970000000009    0.3508958333333331 Ti
   0.8739560000000002    0.9910120000000001    0.0502416666666667 O
   0.8739560000000002    0.9910120000000001    0.2169083333333333 O
   0.8739560000000002    0.9910120000000001    0.3835749999999999 O
   0.8036150000000000    0.7133380000000001    0.0018329999999998 O
   0.8036150000000000    0.7133380000000001    0.1684996666666665 O
   0.8036150000000000    0.7133380000000001    0.3351663333333330 O
   0.9485159999999990    0.2054380000000000    0.0768773333333334 O
   0.9485159999999990    0.2054380000000000    0.2435439999999999 O
   0.9485159999999990    0.2054380000000000    0.4102106666666667 O
   0.2662120000000000    0.5014220000000009    0.0477766666666665 O
   0.2662120000000000    0.5014220000000009    0.2144433333333332 O
   0.2662120000000000    0.5014220000000009    0.3811099999999998 O
   0.8931300000000003    0.5236930000000000    0.4568228333333333 O
   0.8931300000000003    0.5236930000000000    0.1234894999999999 O
   0.8931300000000003    0.5236930000000000    0.2901561666666667 O
   0.3974479999999990    0.6925810000000001    0.0442635000000000 O
   0.3974479999999990    0.6925810000000001    0.2109301666666668 O
   0.3974479999999990    0.6925810000000001    0.3775968333333333 O
   0.2208709999999990    0.2082220000000000    0.0656218333333334 O
   0.2208709999999990    0.2082220000000000    0.2322885000000000 O
   0.2208709999999990    0.2082220000000000    0.3989551666666667 O
   0.5392760000000002    0.7732650000000000    0.0685498333333332 O
   0.5392760000000002    0.7732650000000000    0.2352164999999998 O
   0.5392760000000002    0.7732650000000000    0.4018831666666666 O
   0.5830440000000002    0.3545419999999999    0.0539368333333333 O
   0.5830440000000002    0.3545419999999999    0.2206035000000000 O
   0.5830440000000002    0.3545419999999999    0.3872701666666665 O
   0.1244670000000000    0.4280370000000000    0.0238616666666665 O
   0.1244670000000000    0.4280370000000000    0.1905283333333331 O
   0.1244670000000000    0.4280370000000000    0.3571949999999997 O
   0.0680549999999990    0.6614070000000000    0.4122106666666667 O
   0.0680549999999990    0.6614070000000000    0.0788773333333332 O
   0.0680549999999990    0.6614070000000000    0.2455439999999999 O
   0.2100409999999990    0.8127910000000002    0.0232453333333333 O
   0.2100409999999990    0.8127910000000002    0.1899120000000000 O
   0.2100409999999990    0.8127910000000002    0.3565786666666666 O
   0.6015980000000001    0.2259720000000008    0.0134729999999999 O
   0.6015980000000001    0.2259720000000008    0.1801396666666665 O
   0.6015980000000001    0.2259720000000008    0.3468063333333332 O
   0.9369569999999992    0.8329630000000001    0.0218656666666665 O
   0.9369569999999992    0.8329630000000001    0.1885323333333331 O
   0.9369569999999992    0.8329630000000001    0.3551989999999998 O
   0.7478680000000001    0.3017190000000008    0.4229351666666665 O
   0.7478680000000001    0.3017190000000008    0.0896018333333332 O
   0.7478680000000001    0.3017190000000008    0.2562684999999999 O
   0.1286800000000000    0.6762770000000001    0.4757956666666666 O
   0.1286800000000000    0.6762770000000001    0.1424623333333334 O
   0.1286800000000000    0.6762770000000001    0.3091290000000000 O
   0.3732089999999991    0.0628869999999998    0.0449466666666666 O
   0.3732089999999991    0.0628869999999998    0.2116133333333332 O
   0.3732089999999991    0.0628869999999998    0.3782799999999999 O
   0.9236479999999990    0.9405430000000010    0.4436676666666666 O
   0.9236479999999990    0.9405430000000010    0.1103343333333333 O
   0.9236479999999990    0.9405430000000010    0.2770009999999999 O
   0.9223730000000000    0.1389929999999998    0.4661118333333333 O
   0.9223730000000000    0.1389929999999998    0.1327785000000000 O
   0.9223730000000000    0.1389929999999998    0.2994451666666667 O
   0.9020089999999999    0.2535110000000002    0.0133439999999999 O
   0.9020089999999999    0.2535110000000002    0.1800106666666664 O
   0.9020089999999999    0.2535110000000002    0.3466773333333331 O
   0.5288700000000001    0.4666590000000002    0.0760454999999998 O
   0.5288700000000001    0.4666590000000002    0.2427121666666665 O
   0.5288700000000001    0.4666590000000002    0.4093788333333331 O
   0.0372740000000000    0.6255510000000000    0.0254518333333334 O
   0.0372740000000000    0.6255510000000000    0.1921185000000001 O
   0.0372740000000000    0.6255510000000000    0.3587851666666667 O
   0.7350010000000000    0.9933010000000002    0.0068698333333333 O
   0.7350010000000000    0.9933010000000002    0.1735365000000000 O
   0.7350010000000000    0.9933010000000002    0.3402031666666665 O
   0.7777479999999998    0.7652890000000001    0.4387679999999998 O
   0.7777479999999998    0.7652890000000001    0.1054346666666665 O
   0.7777479999999998    0.7652890000000001    0.2721013333333331 O
   0.1128660000000000    0.3028190000000008    0.4625328333333332 O
   0.1128660000000000    0.3028190000000008    0.1291994999999999 O
   0.1128660000000000    0.3028190000000008    0.2958661666666666 O
   0.5646110000000001    0.9682820000000010    0.0686509999999998 O
   0.5646110000000001    0.9682820000000010    0.2353176666666664 O
   0.5646110000000001    0.9682820000000010    0.4019843333333331 O
   0.8562139999999991    0.5527519999999999    0.0696765000000000 O
   0.8562139999999991    0.5527519999999999    0.2363431666666666 O
   0.8562139999999991    0.5527519999999999    0.4030098333333334 O
   0.2876890000000000    0.7950530000000001    0.0698721666666665 O
   0.2876890000000000    0.7950530000000001    0.2365388333333333 O
   0.2876890000000000    0.7950530000000001    0.4032054999999999 O
   0.3119490000000000    0.7310080000000001    0.4944300000000000 O
   0.3119490000000000    0.7310080000000001    0.1610966666666667 O
   0.3119490000000000    0.7310080000000001    0.3277633333333334 O
   0.6368840000000000    0.4425230000000001    0.4962316666666667 O
   0.6368840000000000    0.4425230000000001    0.1628983333333334 O
   0.6368840000000000    0.4425230000000001    0.3295650000000000 O
   0.4617560000000002    0.0854470000000001    0.4222818333333334 O
   0.4617560000000002    0.0854470000000001    0.0889485000000000 O
   0.4617560000000002    0.0854470000000001    0.2556151666666667 O
   0.0542060000000000    0.0632090000000008    0.0640406666666666 O
   0.0542060000000000    0.0632090000000008    0.2307073333333333 O
   0.0542060000000000    0.0632090000000008    0.3973739999999999 O
   0.3509839999999990    0.8173380000000001    0.4394871666666665 O
   0.3509839999999990    0.8173380000000001    0.1061538333333332 O
   0.3509839999999990    0.8173380000000001    0.2728204999999999 O
   0.4720379999999992    0.9702880000000003    0.0208964999999998 O
   0.4720379999999992    0.9702880000000003    0.1875631666666665 O
   0.4720379999999992    0.9702880000000003    0.3542298333333331 O
   0.7638309999999990    0.7918760000000000    0.0595593333333334 O
   0.7638309999999990    0.7918760000000000    0.2262260000000000 O
   0.7638309999999990    0.7918760000000000    0.3928926666666667 O
   0.5759319999999999    0.1332180000000011    0.4599646666666665 O
   0.5759319999999999    0.1332180000000011    0.1266313333333332 O
   0.5759319999999999    0.1332180000000011    0.2932979999999997 O
   0.4226640000000000    0.2914620000000000    0.0322878333333332 O
   0.4226640000000000    0.2914620000000000    0.1989544999999999 O
   0.4226640000000000    0.2914620000000000    0.3656211666666665 O
   0.1914030000000000    0.9599750000000002    0.4439704999999999 O
   0.1914030000000000    0.9599750000000002    0.1106371666666666 O
   0.1914030000000000    0.9599750000000002    0.2773038333333333 O
   0.1594519999999990    0.5195680000000009    0.4642566666666663 O
   0.1594519999999990    0.5195680000000009    0.1309233333333331 O
   0.1594519999999990    0.5195680000000009    0.2975899999999997 O
   0.1384619999999999    0.1140920000000008    0.4493741666666664 O
   0.1384619999999999    0.1140920000000008    0.1160408333333331 O
   0.1384619999999999    0.1140920000000008    0.2827074999999997 O
   0.3836949999999998    0.2549929999999998    0.4292859999999998 O
   0.3836949999999998    0.2549929999999998    0.0959526666666665 O
   0.3836949999999998    0.2549929999999998    0.2626193333333332 O
   0.2678300000000000    0.5161840000000010    0.4252141666666665 O
   0.2678300000000000    0.5161840000000010    0.0918808333333331 O
   0.2678300000000000    0.5161840000000010    0.2585474999999998 O
   0.7179100000000000    0.0698520000000002    0.4412736666666667 O
   0.7179100000000000    0.0698520000000002    0.1079403333333333 O
   0.7179100000000000    0.0698520000000002    0.2746070000000000 O
   0.3878410000000001    0.4028710000000002    0.4755220000000000 O
   0.3878410000000001    0.4028710000000002    0.1421886666666667 O
   0.3878410000000001    0.4028710000000002    0.3088553333333334 O
   0.3703140000000000    0.9993610000000012    0.4720731666666663 O
   0.3703140000000000    0.9993610000000012    0.1387398333333330 O
   0.3703140000000000    0.9993610000000012    0.3054064999999998 O
   0.1724170000000000    0.2708770000000001    0.0106903333333332 O
   0.1724170000000000    0.2708770000000001    0.1773569999999998 O
   0.1724170000000000    0.2708770000000001    0.3440236666666665 O
   0.0296230000000000    0.0548199999999999    0.0133201666666667 O
   0.0296230000000000    0.0548199999999999    0.1799868333333333 O
   0.0296230000000000    0.0548199999999999    0.3466534999999999 O
   0.0428710000000000    0.8070050000000001    0.4272256666666667 O
   0.0428710000000000    0.8070050000000001    0.0938923333333333 O
   0.0428710000000000    0.8070050000000001    0.2605590000000000 O
   0.7001120000000000    0.1780890000000001    0.0549821666666665 O
   0.7001120000000000    0.1780890000000001    0.2216488333333331 O
   0.7001120000000000    0.1780890000000001    0.3883154999999999 O
   0.5427529999999994    0.6028380000000010    0.0106373333333331 O
   0.5427529999999994    0.6028380000000010    0.1773039999999998 O
   0.5427529999999994    0.6028380000000010    0.3439706666666665 O
   0.6677839999999992    0.7085150000000000    0.0363403333333333 O
   0.6677839999999992    0.7085150000000000    0.2030070000000000 O
   0.6677839999999992    0.7085150000000000    0.3696736666666666 O
   0.5019669999999992    0.2638999999999998    0.4694171666666667 O
   0.5019669999999992    0.2638999999999998    0.1360838333333334 O
   0.5019669999999992    0.2638999999999998    0.3027505000000000 O
   0.5481920000000000    0.8703910000000000    0.4982995000000000 O
   0.5481920000000000    0.8703910000000000    0.1649661666666666 O
   0.5481920000000000    0.8703910000000000    0.3316328333333334 O
   0.5340460000000001    0.6660159999999999    0.4557316666666665 O
   0.5340460000000001    0.6660159999999999    0.1223983333333332 O
   0.5340460000000001    0.6660159999999999    0.2890649999999999 O
   0.3606370000000000    0.5156370000000000    0.0017005000000000 O
   0.3606370000000000    0.5156370000000000    0.1683671666666667 O
   0.3606370000000000    0.5156370000000000    0.3350338333333333 O
   0.7773439999999990    0.3032550000000002    0.4642498333333333 O
   0.7773439999999990    0.3032550000000002    0.1309165000000000 O
   0.7773439999999990    0.3032550000000002    0.2975831666666667 O
   0.2641879999999999    0.1172580000000010    0.4871576666666665 O
   0.2641879999999999    0.1172580000000010    0.1538243333333332 O
   0.2641879999999999    0.1172580000000010    0.3204909999999997 O
   0.8271069999999990    0.3857580000000001    0.0307173333333333 O
   0.8271069999999990    0.3857580000000001    0.1973839999999999 O
   0.8271069999999990    0.3857580000000001    0.3640506666666667 O
   0.6517999999999999    0.5210360000000001    0.4436756666666666 O
   0.6517999999999999    0.5210360000000001    0.1103423333333333 O
   0.6517999999999999    0.5210360000000001    0.2770090000000001 O
   0.5605660000000001    0.8361070000000010    0.4652266666666663 O
   0.5605660000000001    0.8361070000000010    0.1318933333333330 O
   0.5605660000000001    0.8361070000000010    0.2985599999999997 O
