Ti90 O180
1.0
  10.7847349425586163    0.0000000000000000    0.0060328200944446
  -1.2247047225377732   10.4583487854001529    9.3482210382165096
   0.0000000000000000    0.0000000000000000   62.9170570674836966
Ti O
90 180
direct
   0.3479379999999991    0.8204740000000001    0.4480419166666667 Ti
   0.3479379999999991    0.8204740000000001    0.1147085833333334 Ti
   0.3479379999999991    0.8204740000000001    0.2813752500000001 Ti
   0.1008690000000000    0.1441720000000008    0.4177075833333332 Ti
   0.1008690000000000    0.1441720000000008    0.0843742499999999 Ti
   0.1008690000000000    0.1441720000000008    0.2510409166666665 Ti
   0.8065249999999994    0.4774350000000001    0.3815244166666667 Ti
   0.8065249999999994    0.4774350000000001    0.0481910833333334 Ti
   0.8065249999999994    0.4774350000000001    0.2148577500000000 Ti
   0.7909490000000001    0.2465539999999999    0.0127162500000001 Ti
   0.7909490000000001    0.2465539999999999    0.1793829166666668 Ti
   0.7909490000000001    0.2465539999999999    0.3460495833333335 Ti
   0.4398120000000000    0.7044890000000010    0.4154140833333332 Ti
   0.4398120000000000    0.7044890000000010    0.0820807499999998 Ti
   0.4398120000000000    0.7044890000000010    0.2487474166666665 Ti
   0.1631409999999990    0.5778510000000001    0.4584205833333334 Ti
   0.1631409999999990    0.5778510000000001    0.1250872500000000 Ti
   0.1631409999999990    0.5778510000000001    0.2917539166666667 Ti
   0.5602509999999991    0.0046750000000008    0.3970587500000000 Ti
   0.5602509999999991    0.0046750000000008    0.0637254166666666 Ti
   0.5602509999999991    0.0046750000000008    0.2303920833333333 Ti
   0.5211030000000000    0.4422479999999999    0.4603820833333334 Ti
   0.5211030000000000    0.4422479999999999    0.1270487500000001 Ti
   0.5211030000000000    0.4422479999999999    0.2937154166666668 Ti
   0.5445340000000000    0.3619320000000000    0.4206765833333332 Ti
   0.5445340000000000    0.3619320000000000    0.0873432499999998 Ti
   0.5445340000000000    0.3619320000000000    0.2540099166666665 Ti
   0.3685410000000002    0.5153020000000010    0.0105630833333331 Ti
   0.3685410000000002    0.5153020000000010    0.1772297499999997 Ti
   0.3685410000000002    0.5153020000000010    0.3438964166666665 Ti
   0.0395639999999990    0.6267690000000000    0.3876219166666667 Ti
   0.0395639999999990    0.6267690000000000    0.0542885833333333 Ti
   0.0395639999999990    0.6267690000000000    0.2209552500000000 Ti
   0.4267149999999991    0.1029350000000001    0.4268355833333334 Ti
   0.4267149999999991    0.1029350000000001    0.0935022500000000 Ti
   0.4267149999999991    0.1029350000000001    0.2601689166666667 Ti
   0.4301250000000000    0.9143660000000000    0.0017314166666666 Ti
   0.4301250000000000    0.9143660000000000    0.1683980833333333 Ti
   0.4301250000000000    0.9143660000000000    0.3350647499999999 Ti
   0.8723019999999996    0.9280300000000002    0.4719227500000001 Ti
   0.8723019999999996    0.9280300000000002    0.1385894166666667 Ti
   0.8723019999999996    0.9280300000000002    0.3052560833333333 Ti
   0.1865880000000000    0.8336970000000010    0.3861699166666664 Ti
   0.1865880000000000    0.8336970000000010    0.0528365833333331 Ti
   0.1865880000000000    0.8336970000000010    0.2195032499999998 Ti
   0.6539610000000002    0.6951250000000000    0.3732227499999999 Ti
   0.6539610000000002    0.6951250000000000    0.0398894166666666 Ti
   0.6539610000000002    0.6951250000000000    0.2065560833333333 Ti
   0.3001759999999999    0.1249779999999997    0.3758622500000001 Ti
   0.3001759999999999    0.1249779999999997    0.0425289166666668 Ti
   0.3001759999999999    0.1249779999999997    0.2091955833333334 Ti
   0.2299519999999999    0.7013280000000000    0.0049464166666668 Ti
   0.2299519999999999    0.7013280000000000    0.1716130833333335 Ti
   0.2299519999999999    0.7013280000000000    0.3382797500000001 Ti
   0.2223479999999999    0.3955090000000000    0.4106099166666668 Ti
   0.2223479999999999    0.3955090000000000    0.0772765833333334 Ti
   0.2223479999999999    0.3955090000000000    0.2439432500000001 Ti
   0.5601389999999993    0.3160910000000000    0.3634394166666667 Ti
   0.5601389999999993    0.3160910000000000    0.0301060833333334 Ti
   0.5601389999999993    0.3160910000000000    0.1967727500000001 Ti
   0.0458439999999990    0.0765540000000000    0.3691044166666667 Ti
   0.0458439999999990    0.0765540000000000    0.0357710833333334 Ti
   0.0458439999999990    0.0765540000000000    0.2024377500000001 Ti
   0.7670669999999988    0.1698310000000008    0.4066704166666666 Ti
   0.7670669999999988    0.1698310000000008    0.0733370833333333 Ti
   0.7670669999999988    0.1698310000000008    0.2400037500000000 Ti
   0.0141669999999990    0.1413960000000010    0.4703700833333332 Ti
   0.0141669999999990    0.1413960000000010    0.1370367499999999 Ti
   0.0141669999999990    0.1413960000000010    0.3037034166666666 Ti
   0.9002000000000000    0.6815009999999999    0.4728357500000001 Ti
   0.9002000000000000    0.6815009999999999    0.1395024166666669 Ti
   0.9002000000000000    0.6815009999999999    0.3061690833333335 Ti
   0.9040300000000002    0.8948880000000002    0.3647197500000000 Ti
   0.9040300000000002    0.8948880000000002    0.0313864166666667 Ti
   0.9040300000000002    0.8948880000000002    0.1980530833333334 Ti
   0.2487680000000000    0.3399710000000001    0.4685809166666667 Ti
   0.2487680000000000    0.3399710000000001    0.1352475833333333 Ti
   0.2487680000000000    0.3399710000000001    0.3019142500000000 Ti
   0.6409000000000002    0.7353340000000003    0.4455245833333334 Ti
   0.6409000000000002    0.7353340000000003    0.1121912500000000 Ti
   0.6409000000000002    0.7353340000000003    0.2788579166666667 Ti
   0.6138279999999990    0.8367120000000000    0.4758355833333334 Ti
   0.6138279999999990    0.8367120000000000    0.1425022500000001 Ti
   0.6138279999999990    0.8367120000000000    0.3091689166666667 Ti
   0.5144870000000001    0.1248010000000002    0.4948792500000000 Ti
   0.5144870000000001    0.1248010000000002    0.1615459166666667 Ti
   0.5144870000000001    0.1248010000000002    0.3282125833333334 Ti
   0.7612200000000001    0.3121970000000009    0.4602917499999998 Ti
   0.7612200000000001    0.3121970000000009    0.1269584166666665 Ti
   0.7612200000000001    0.3121970000000009    0.2936250833333331 Ti
   0.8739560000000002    0.9910120000000001    0.4929709166666668 O
   0.8739560000000002    0.9910120000000001    0.1596375833333334 O
   0.8739560000000002    0.9910120000000001    0.3263042500000000 O
   0.8036150000000000    0.7133380000000001    0.4445622499999999 O
   0.8036150000000000    0.7133380000000001    0.1112289166666666 O
   0.8036150000000000    0.7133380000000001    0.2778955833333330 O
   0.9485159999999990    0.2054380000000000    0.0196065833333334 O
   0.9485159999999990    0.2054380000000000    0.1862732499999999 O
   0.9485159999999990    0.2054380000000000    0.3529399166666668 O
   0.2662120000000000    0.5014220000000009    0.4905059166666665 O
   0.2662120000000000    0.5014220000000009    0.1571725833333333 O
   0.2662120000000000    0.5014220000000009    0.3238392499999999 O
   0.8931300000000003    0.5236930000000000    0.3995520833333334 O
   0.8931300000000003    0.5236930000000000    0.0662187500000000 O
   0.8931300000000003    0.5236930000000000    0.2328854166666667 O
   0.3974479999999990    0.6925810000000001    0.4869927500000000 O
   0.3974479999999990    0.6925810000000001    0.1536594166666668 O
   0.3974479999999990    0.6925810000000001    0.3203260833333334 O
   0.2208709999999990    0.2082220000000000    0.0083510833333335 O
   0.2208709999999990    0.2082220000000000    0.1750177500000001 O
   0.2208709999999990    0.2082220000000000    0.3416844166666668 O
   0.5392760000000002    0.7732650000000000    0.0112790833333333 O
   0.5392760000000002    0.7732650000000000    0.1779457499999999 O
   0.5392760000000002    0.7732650000000000    0.3446124166666666 O
   0.5830440000000002    0.3545419999999999    0.4966660833333334 O
   0.5830440000000002    0.3545419999999999    0.1633327500000001 O
   0.5830440000000002    0.3545419999999999    0.3299994166666666 O
   0.1244670000000000    0.4280370000000000    0.4665909166666666 O
   0.1244670000000000    0.4280370000000000    0.1332575833333332 O
   0.1244670000000000    0.4280370000000000    0.2999242499999998 O
   0.0680549999999990    0.6614070000000000    0.3549399166666667 O
   0.0680549999999990    0.6614070000000000    0.0216065833333333 O
   0.0680549999999990    0.6614070000000000    0.1882732499999999 O
   0.2100409999999990    0.8127910000000002    0.4659745833333334 O
   0.2100409999999990    0.8127910000000002    0.1326412500000000 O
   0.2100409999999990    0.8127910000000002    0.2993079166666667 O
   0.6015980000000001    0.2259720000000008    0.4562022499999999 O
   0.6015980000000001    0.2259720000000008    0.1228689166666666 O
   0.6015980000000001    0.2259720000000008    0.2895355833333332 O
   0.9369569999999992    0.8329630000000001    0.4645949166666666 O
   0.9369569999999992    0.8329630000000001    0.1312615833333332 O
   0.9369569999999992    0.8329630000000001    0.2979282499999998 O
   0.7478680000000001    0.3017190000000008    0.3656644166666666 O
   0.7478680000000001    0.3017190000000008    0.0323310833333333 O
   0.7478680000000001    0.3017190000000008    0.1989977500000000 O
   0.1286800000000000    0.6762770000000001    0.4185249166666667 O
   0.1286800000000000    0.6762770000000001    0.0851915833333334 O
   0.1286800000000000    0.6762770000000001    0.2518582500000001 O
   0.3732089999999991    0.0628869999999998    0.4876759166666667 O
   0.3732089999999991    0.0628869999999998    0.1543425833333333 O
   0.3732089999999991    0.0628869999999998    0.3210092500000000 O
   0.9236479999999990    0.9405430000000010    0.3863969166666666 O
   0.9236479999999990    0.9405430000000010    0.0530635833333333 O
   0.9236479999999990    0.9405430000000010    0.2197302500000000 O
   0.9223730000000000    0.1389929999999998    0.4088410833333335 O
   0.9223730000000000    0.1389929999999998    0.0755077500000001 O
   0.9223730000000000    0.1389929999999998    0.2421744166666668 O
   0.9020089999999999    0.2535110000000002    0.4560732499999999 O
   0.9020089999999999    0.2535110000000002    0.1227399166666665 O
   0.9020089999999999    0.2535110000000002    0.2894065833333331 O
   0.5288700000000001    0.4666590000000002    0.0187747499999999 O
   0.5288700000000001    0.4666590000000002    0.1854414166666666 O
   0.5288700000000001    0.4666590000000002    0.3521080833333332 O
   0.0372740000000000    0.6255510000000000    0.4681810833333335 O
   0.0372740000000000    0.6255510000000000    0.1348477500000002 O
   0.0372740000000000    0.6255510000000000    0.3015144166666667 O
   0.7350010000000000    0.9933010000000002    0.4495990833333334 O
   0.7350010000000000    0.9933010000000002    0.1162657500000001 O
   0.7350010000000000    0.9933010000000002    0.2829324166666666 O
   0.7777479999999998    0.7652890000000001    0.3814972499999999 O
   0.7777479999999998    0.7652890000000001    0.0481639166666666 O
   0.7777479999999998    0.7652890000000001    0.2148305833333332 O
   0.1128660000000000    0.3028190000000008    0.4052620833333333 O
   0.1128660000000000    0.3028190000000008    0.0719287500000000 O
   0.1128660000000000    0.3028190000000008    0.2385954166666667 O
   0.5646110000000001    0.9682820000000010    0.0113802499999999 O
   0.5646110000000001    0.9682820000000010    0.1780469166666665 O
   0.5646110000000001    0.9682820000000010    0.3447135833333331 O
   0.8562139999999991    0.5527519999999999    0.0124057500000000 O
   0.8562139999999991    0.5527519999999999    0.1790724166666667 O
   0.8562139999999991    0.5527519999999999    0.3457390833333335 O
   0.2876890000000000    0.7950530000000001    0.0126014166666666 O
   0.2876890000000000    0.7950530000000001    0.1792680833333333 O
   0.2876890000000000    0.7950530000000001    0.3459347500000000 O
   0.3119490000000000    0.7310080000000001    0.4371592500000001 O
   0.3119490000000000    0.7310080000000001    0.1038259166666668 O
   0.3119490000000000    0.7310080000000001    0.2704925833333334 O
   0.6368840000000000    0.4425230000000001    0.4389609166666668 O
   0.6368840000000000    0.4425230000000001    0.1056275833333334 O
   0.6368840000000000    0.4425230000000001    0.2722942500000001 O
   0.4617560000000002    0.0854470000000001    0.3650110833333334 O
   0.4617560000000002    0.0854470000000001    0.0316777500000001 O
   0.4617560000000002    0.0854470000000001    0.1983444166666667 O
   0.0542060000000000    0.0632090000000008    0.0067699166666666 O
   0.0542060000000000    0.0632090000000008    0.1734365833333333 O
   0.0542060000000000    0.0632090000000008    0.3401032500000000 O
   0.3509839999999990    0.8173380000000001    0.3822164166666666 O
   0.3509839999999990    0.8173380000000001    0.0488830833333333 O
   0.3509839999999990    0.8173380000000001    0.2155497499999999 O
   0.4720379999999992    0.9702880000000003    0.4636257499999999 O
   0.4720379999999992    0.9702880000000003    0.1302924166666666 O
   0.4720379999999992    0.9702880000000003    0.2969590833333332 O
   0.7638309999999990    0.7918760000000000    0.0022885833333334 O
   0.7638309999999990    0.7918760000000000    0.1689552500000001 O
   0.7638309999999990    0.7918760000000000    0.3356219166666667 O
   0.5759319999999999    0.1332180000000011    0.4026939166666665 O
   0.5759319999999999    0.1332180000000011    0.0693605833333332 O
   0.5759319999999999    0.1332180000000011    0.2360272499999998 O
   0.4226640000000000    0.2914620000000000    0.4750170833333333 O
   0.4226640000000000    0.2914620000000000    0.1416837499999999 O
   0.4226640000000000    0.2914620000000000    0.3083504166666666 O
   0.1914030000000000    0.9599750000000002    0.3866997500000000 O
   0.1914030000000000    0.9599750000000002    0.0533664166666667 O
   0.1914030000000000    0.9599750000000002    0.2200330833333334 O
   0.1594519999999990    0.5195680000000009    0.4069859166666664 O
   0.1594519999999990    0.5195680000000009    0.0736525833333331 O
   0.1594519999999990    0.5195680000000009    0.2403192499999998 O
   0.1384619999999999    0.1140920000000008    0.3921034166666665 O
   0.1384619999999999    0.1140920000000008    0.0587700833333332 O
   0.1384619999999999    0.1140920000000008    0.2254367499999998 O
   0.3836949999999998    0.2549929999999998    0.3720152499999999 O
   0.3836949999999998    0.2549929999999998    0.0386819166666666 O
   0.3836949999999998    0.2549929999999998    0.2053485833333333 O
   0.2678300000000000    0.5161840000000010    0.3679434166666666 O
   0.2678300000000000    0.5161840000000010    0.0346100833333332 O
   0.2678300000000000    0.5161840000000010    0.2012767499999999 O
   0.7179100000000000    0.0698520000000002    0.3840029166666667 O
   0.7179100000000000    0.0698520000000002    0.0506695833333334 O
   0.7179100000000000    0.0698520000000002    0.2173362500000001 O
   0.3878410000000001    0.4028710000000002    0.4182512500000001 O
   0.3878410000000001    0.4028710000000002    0.0849179166666667 O
   0.3878410000000001    0.4028710000000002    0.2515845833333334 O
   0.3703140000000000    0.9993610000000012    0.4148024166666664 O
   0.3703140000000000    0.9993610000000012    0.0814690833333331 O
   0.3703140000000000    0.9993610000000012    0.2481357499999999 O
   0.1724170000000000    0.2708770000000001    0.4534195833333333 O
   0.1724170000000000    0.2708770000000001    0.1200862499999999 O
   0.1724170000000000    0.2708770000000001    0.2867529166666666 O
   0.0296230000000000    0.0548199999999999    0.4560494166666668 O
   0.0296230000000000    0.0548199999999999    0.1227160833333333 O
   0.0296230000000000    0.0548199999999999    0.2893827500000000 O
   0.0428710000000000    0.8070050000000001    0.3699549166666668 O
   0.0428710000000000    0.8070050000000001    0.0366215833333334 O
   0.0428710000000000    0.8070050000000001    0.2032882500000001 O
   0.7001120000000000    0.1780890000000001    0.4977114166666666 O
   0.7001120000000000    0.1780890000000001    0.1643780833333332 O
   0.7001120000000000    0.1780890000000001    0.3310447499999999 O
   0.5427529999999994    0.6028380000000010    0.4533665833333332 O
   0.5427529999999994    0.6028380000000010    0.1200332499999999 O
   0.5427529999999994    0.6028380000000010    0.2866999166666666 O
   0.6677839999999992    0.7085150000000000    0.4790695833333334 O
   0.6677839999999992    0.7085150000000000    0.1457362500000001 O
   0.6677839999999992    0.7085150000000000    0.3124029166666667 O
   0.5019669999999992    0.2638999999999998    0.4121464166666668 O
   0.5019669999999992    0.2638999999999998    0.0788130833333335 O
   0.5019669999999992    0.2638999999999998    0.2454797500000001 O
   0.5481920000000000    0.8703910000000000    0.4410287500000001 O
   0.5481920000000000    0.8703910000000000    0.1076954166666667 O
   0.5481920000000000    0.8703910000000000    0.2743620833333335 O
   0.5340460000000001    0.6660159999999999    0.3984609166666666 O
   0.5340460000000001    0.6660159999999999    0.0651275833333333 O
   0.5340460000000001    0.6660159999999999    0.2317942500000000 O
   0.3606370000000000    0.5156370000000000    0.4444297500000001 O
   0.3606370000000000    0.5156370000000000    0.1110964166666668 O
   0.3606370000000000    0.5156370000000000    0.2777630833333334 O
   0.7773439999999990    0.3032550000000002    0.4069790833333333 O
   0.7773439999999990    0.3032550000000002    0.0736457500000000 O
   0.7773439999999990    0.3032550000000002    0.2403124166666668 O
   0.2641879999999999    0.1172580000000010    0.4298869166666666 O
   0.2641879999999999    0.1172580000000010    0.0965535833333332 O
   0.2641879999999999    0.1172580000000010    0.2632202499999998 O
   0.8271069999999990    0.3857580000000001    0.4734465833333334 O
   0.8271069999999990    0.3857580000000001    0.1401132500000000 O
   0.8271069999999990    0.3857580000000001    0.3067799166666668 O
   0.6517999999999999    0.5210360000000001    0.3864049166666667 O
   0.6517999999999999    0.5210360000000001    0.0530715833333333 O
   0.6517999999999999    0.5210360000000001    0.2197382500000001 O
   0.5605660000000001    0.8361070000000010    0.4079559166666664 O
   0.5605660000000001    0.8361070000000010    0.0746225833333331 O
   0.5605660000000001    0.8361070000000010    0.2412892499999998 O
