Ti90 O180
1.0
  10.7847349425586163    0.0000000000000000    0.0060328200944446
  -1.2247047225377732   10.4583487854001529    9.3482210382165096
   0.0000000000000000    0.0000000000000000   62.9170570674836966
Ti O
90 180
direct
   0.3479379999999991    0.8204740000000001    0.0010274999999999 Ti
   0.3479379999999991    0.8204740000000001    0.1676941666666667 Ti
   0.3479379999999991    0.8204740000000001    0.3343608333333333 Ti
   0.1008690000000000    0.1441720000000008    0.4706931666666665 Ti
   0.1008690000000000    0.1441720000000008    0.1373598333333331 Ti
   0.1008690000000000    0.1441720000000008    0.3040264999999998 Ti
   0.8065249999999994    0.4774350000000001    0.4345100000000000 Ti
   0.8065249999999994    0.4774350000000001    0.1011766666666666 Ti
   0.8065249999999994    0.4774350000000001    0.2678433333333333 Ti
   0.7909490000000001    0.2465539999999999    0.0657018333333333 Ti
   0.7909490000000001    0.2465539999999999    0.2323685000000001 Ti
   0.7909490000000001    0.2465539999999999    0.3990351666666667 Ti
   0.4398120000000000    0.7044890000000010    0.4683996666666665 Ti
   0.4398120000000000    0.7044890000000010    0.1350663333333331 Ti
   0.4398120000000000    0.7044890000000010    0.3017329999999998 Ti
   0.1631409999999990    0.5778510000000001    0.0114061666666667 Ti
   0.1631409999999990    0.5778510000000001    0.1780728333333333 Ti
   0.1631409999999990    0.5778510000000001    0.3447394999999999 Ti
   0.5602509999999991    0.0046750000000008    0.4500443333333332 Ti
   0.5602509999999991    0.0046750000000008    0.1167109999999999 Ti
   0.5602509999999991    0.0046750000000008    0.2833776666666666 Ti
   0.5211030000000000    0.4422479999999999    0.0133676666666667 Ti
   0.5211030000000000    0.4422479999999999    0.1800343333333334 Ti
   0.5211030000000000    0.4422479999999999    0.3467010000000000 Ti
   0.5445340000000000    0.3619320000000000    0.4736621666666665 Ti
   0.5445340000000000    0.3619320000000000    0.1403288333333331 Ti
   0.5445340000000000    0.3619320000000000    0.3069954999999998 Ti
   0.3685410000000002    0.5153020000000010    0.0635486666666663 Ti
   0.3685410000000002    0.5153020000000010    0.2302153333333329 Ti
   0.3685410000000002    0.5153020000000010    0.3968819999999997 Ti
   0.0395639999999990    0.6267690000000000    0.4406074999999999 Ti
   0.0395639999999990    0.6267690000000000    0.1072741666666666 Ti
   0.0395639999999990    0.6267690000000000    0.2739408333333332 Ti
   0.4267149999999991    0.1029350000000001    0.4798211666666666 Ti
   0.4267149999999991    0.1029350000000001    0.1464878333333332 Ti
   0.4267149999999991    0.1029350000000001    0.3131544999999999 Ti
   0.4301250000000000    0.9143660000000000    0.0547169999999999 Ti
   0.4301250000000000    0.9143660000000000    0.2213836666666665 Ti
   0.4301250000000000    0.9143660000000000    0.3880503333333332 Ti
   0.8723019999999996    0.9280300000000002    0.0249083333333333 Ti
   0.8723019999999996    0.9280300000000002    0.1915749999999999 Ti
   0.8723019999999996    0.9280300000000002    0.3582416666666665 Ti
   0.1865880000000000    0.8336970000000010    0.4391554999999996 Ti
   0.1865880000000000    0.8336970000000010    0.1058221666666663 Ti
   0.1865880000000000    0.8336970000000010    0.2724888333333330 Ti
   0.6539610000000002    0.6951250000000000    0.4262083333333331 Ti
   0.6539610000000002    0.6951250000000000    0.0928749999999999 Ti
   0.6539610000000002    0.6951250000000000    0.2595416666666666 Ti
   0.3001759999999999    0.1249779999999997    0.4288478333333334 Ti
   0.3001759999999999    0.1249779999999997    0.0955145000000001 Ti
   0.3001759999999999    0.1249779999999997    0.2621811666666667 Ti
   0.2299519999999999    0.7013280000000000    0.0579320000000000 Ti
   0.2299519999999999    0.7013280000000000    0.2245986666666667 Ti
   0.2299519999999999    0.7013280000000000    0.3912653333333334 Ti
   0.2223479999999999    0.3955090000000000    0.4635955000000000 Ti
   0.2223479999999999    0.3955090000000000    0.1302621666666666 Ti
   0.2223479999999999    0.3955090000000000    0.2969288333333333 Ti
   0.5601389999999993    0.3160910000000000    0.4164250000000000 Ti
   0.5601389999999993    0.3160910000000000    0.0830916666666667 Ti
   0.5601389999999993    0.3160910000000000    0.2497583333333333 Ti
   0.0458439999999990    0.0765540000000000    0.4220900000000000 Ti
   0.0458439999999990    0.0765540000000000    0.0887566666666667 Ti
   0.0458439999999990    0.0765540000000000    0.2554233333333333 Ti
   0.7670669999999988    0.1698310000000008    0.4596559999999998 Ti
   0.7670669999999988    0.1698310000000008    0.1263226666666665 Ti
   0.7670669999999988    0.1698310000000008    0.2929893333333332 Ti
   0.0141669999999990    0.1413960000000010    0.0233556666666665 Ti
   0.0141669999999990    0.1413960000000010    0.1900223333333332 Ti
   0.0141669999999990    0.1413960000000010    0.3566889999999998 Ti
   0.9002000000000000    0.6815009999999999    0.0258213333333333 Ti
   0.9002000000000000    0.6815009999999999    0.1924880000000001 Ti
   0.9002000000000000    0.6815009999999999    0.3591546666666667 Ti
   0.9040300000000002    0.8948880000000002    0.4177053333333333 Ti
   0.9040300000000002    0.8948880000000002    0.0843719999999999 Ti
   0.9040300000000002    0.8948880000000002    0.2510386666666666 Ti
   0.2487680000000000    0.3399710000000001    0.0215665000000000 Ti
   0.2487680000000000    0.3399710000000001    0.1882331666666666 Ti
   0.2487680000000000    0.3399710000000001    0.3548998333333332 Ti
   0.6409000000000002    0.7353340000000003    0.4985101666666667 Ti
   0.6409000000000002    0.7353340000000003    0.1651768333333332 Ti
   0.6409000000000002    0.7353340000000003    0.3318435000000000 Ti
   0.6138279999999990    0.8367120000000000    0.0288211666666666 Ti
   0.6138279999999990    0.8367120000000000    0.1954878333333334 Ti
   0.6138279999999990    0.8367120000000000    0.3621545000000000 Ti
   0.5144870000000001    0.1248010000000002    0.0478648333333333 Ti
   0.5144870000000001    0.1248010000000002    0.2145314999999999 Ti
   0.5144870000000001    0.1248010000000002    0.3811981666666666 Ti
   0.7612200000000001    0.3121970000000009    0.0132773333333330 Ti
   0.7612200000000001    0.3121970000000009    0.1799439999999997 Ti
   0.7612200000000001    0.3121970000000009    0.3466106666666664 Ti
   0.8739560000000002    0.9910120000000001    0.0459565000000000 O
   0.8739560000000002    0.9910120000000001    0.2126231666666666 O
   0.8739560000000002    0.9910120000000001    0.3792898333333333 O
   0.8036150000000000    0.7133380000000001    0.4975478333333331 O
   0.8036150000000000    0.7133380000000001    0.1642144999999998 O
   0.8036150000000000    0.7133380000000001    0.3308811666666663 O
   0.9485159999999990    0.2054380000000000    0.0725921666666667 O
   0.9485159999999990    0.2054380000000000    0.2392588333333332 O
   0.9485159999999990    0.2054380000000000    0.4059255000000001 O
   0.2662120000000000    0.5014220000000009    0.0434914999999998 O
   0.2662120000000000    0.5014220000000009    0.2101581666666665 O
   0.2662120000000000    0.5014220000000009    0.3768248333333332 O
   0.8931300000000003    0.5236930000000000    0.4525376666666667 O
   0.8931300000000003    0.5236930000000000    0.1192043333333333 O
   0.8931300000000003    0.5236930000000000    0.2858710000000000 O
   0.3974479999999990    0.6925810000000001    0.0399783333333333 O
   0.3974479999999990    0.6925810000000001    0.2066450000000001 O
   0.3974479999999990    0.6925810000000001    0.3733116666666667 O
   0.2208709999999990    0.2082220000000000    0.0613366666666667 O
   0.2208709999999990    0.2082220000000000    0.2280033333333333 O
   0.2208709999999990    0.2082220000000000    0.3946700000000001 O
   0.5392760000000002    0.7732650000000000    0.0642646666666665 O
   0.5392760000000002    0.7732650000000000    0.2309313333333332 O
   0.5392760000000002    0.7732650000000000    0.3975979999999999 O
   0.5830440000000002    0.3545419999999999    0.0496516666666666 O
   0.5830440000000002    0.3545419999999999    0.2163183333333333 O
   0.5830440000000002    0.3545419999999999    0.3829849999999999 O
   0.1244670000000000    0.4280370000000000    0.0195764999999998 O
   0.1244670000000000    0.4280370000000000    0.1862431666666664 O
   0.1244670000000000    0.4280370000000000    0.3529098333333330 O
   0.0680549999999990    0.6614070000000000    0.4079255000000000 O
   0.0680549999999990    0.6614070000000000    0.0745921666666666 O
   0.0680549999999990    0.6614070000000000    0.2412588333333332 O
   0.2100409999999990    0.8127910000000002    0.0189601666666666 O
   0.2100409999999990    0.8127910000000002    0.1856268333333333 O
   0.2100409999999990    0.8127910000000002    0.3522934999999999 O
   0.6015980000000001    0.2259720000000008    0.0091878333333332 O
   0.6015980000000001    0.2259720000000008    0.1758544999999999 O
   0.6015980000000001    0.2259720000000008    0.3425211666666665 O
   0.9369569999999992    0.8329630000000001    0.0175804999999998 O
   0.9369569999999992    0.8329630000000001    0.1842471666666665 O
   0.9369569999999992    0.8329630000000001    0.3509138333333331 O
   0.7478680000000001    0.3017190000000008    0.4186499999999999 O
   0.7478680000000001    0.3017190000000008    0.0853166666666665 O
   0.7478680000000001    0.3017190000000008    0.2519833333333332 O
   0.1286800000000000    0.6762770000000001    0.4715104999999999 O
   0.1286800000000000    0.6762770000000001    0.1381771666666667 O
   0.1286800000000000    0.6762770000000001    0.3048438333333333 O
   0.3732089999999991    0.0628869999999998    0.0406614999999999 O
   0.3732089999999991    0.0628869999999998    0.2073281666666665 O
   0.3732089999999991    0.0628869999999998    0.3739948333333332 O
   0.9236479999999990    0.9405430000000010    0.4393824999999999 O
   0.9236479999999990    0.9405430000000010    0.1060491666666666 O
   0.9236479999999990    0.9405430000000010    0.2727158333333332 O
   0.9223730000000000    0.1389929999999998    0.4618266666666667 O
   0.9223730000000000    0.1389929999999998    0.1284933333333333 O
   0.9223730000000000    0.1389929999999998    0.2951600000000000 O
   0.9020089999999999    0.2535110000000002    0.0090588333333332 O
   0.9020089999999999    0.2535110000000002    0.1757254999999998 O
   0.9020089999999999    0.2535110000000002    0.3423921666666664 O
   0.5288700000000001    0.4666590000000002    0.0717603333333331 O
   0.5288700000000001    0.4666590000000002    0.2384269999999998 O
   0.5288700000000001    0.4666590000000002    0.4050936666666665 O
   0.0372740000000000    0.6255510000000000    0.0211666666666667 O
   0.0372740000000000    0.6255510000000000    0.1878333333333334 O
   0.0372740000000000    0.6255510000000000    0.3545000000000000 O
   0.7350010000000000    0.9933010000000002    0.0025846666666667 O
   0.7350010000000000    0.9933010000000002    0.1692513333333333 O
   0.7350010000000000    0.9933010000000002    0.3359179999999998 O
   0.7777479999999998    0.7652890000000001    0.4344828333333332 O
   0.7777479999999998    0.7652890000000001    0.1011494999999998 O
   0.7777479999999998    0.7652890000000001    0.2678161666666664 O
   0.1128660000000000    0.3028190000000008    0.4582476666666666 O
   0.1128660000000000    0.3028190000000008    0.1249143333333332 O
   0.1128660000000000    0.3028190000000008    0.2915809999999999 O
   0.5646110000000001    0.9682820000000010    0.0643658333333332 O
   0.5646110000000001    0.9682820000000010    0.2310324999999998 O
   0.5646110000000001    0.9682820000000010    0.3976991666666664 O
   0.8562139999999991    0.5527519999999999    0.0653913333333333 O
   0.8562139999999991    0.5527519999999999    0.2320579999999999 O
   0.8562139999999991    0.5527519999999999    0.3987246666666667 O
   0.2876890000000000    0.7950530000000001    0.0655869999999999 O
   0.2876890000000000    0.7950530000000001    0.2322536666666666 O
   0.2876890000000000    0.7950530000000001    0.3989203333333332 O
   0.3119490000000000    0.7310080000000001    0.4901448333333333 O
   0.3119490000000000    0.7310080000000001    0.1568115000000000 O
   0.3119490000000000    0.7310080000000001    0.3234781666666667 O
   0.6368840000000000    0.4425230000000001    0.4919465000000000 O
   0.6368840000000000    0.4425230000000001    0.1586131666666667 O
   0.6368840000000000    0.4425230000000001    0.3252798333333333 O
   0.4617560000000002    0.0854470000000001    0.4179966666666667 O
   0.4617560000000002    0.0854470000000001    0.0846633333333333 O
   0.4617560000000002    0.0854470000000001    0.2513300000000000 O
   0.0542060000000000    0.0632090000000008    0.0597554999999999 O
   0.0542060000000000    0.0632090000000008    0.2264221666666666 O
   0.0542060000000000    0.0632090000000008    0.3930888333333332 O
   0.3509839999999990    0.8173380000000001    0.4352019999999999 O
   0.3509839999999990    0.8173380000000001    0.1018686666666666 O
   0.3509839999999990    0.8173380000000001    0.2685353333333332 O
   0.4720379999999992    0.9702880000000003    0.0166113333333332 O
   0.4720379999999992    0.9702880000000003    0.1832779999999998 O
   0.4720379999999992    0.9702880000000003    0.3499446666666665 O
   0.7638309999999990    0.7918760000000000    0.0552741666666667 O
   0.7638309999999990    0.7918760000000000    0.2219408333333334 O
   0.7638309999999990    0.7918760000000000    0.3886075000000000 O
   0.5759319999999999    0.1332180000000011    0.4556794999999998 O
   0.5759319999999999    0.1332180000000011    0.1223461666666665 O
   0.5759319999999999    0.1332180000000011    0.2890128333333331 O
   0.4226640000000000    0.2914620000000000    0.0280026666666665 O
   0.4226640000000000    0.2914620000000000    0.1946693333333332 O
   0.4226640000000000    0.2914620000000000    0.3613359999999998 O
   0.1914030000000000    0.9599750000000002    0.4396853333333333 O
   0.1914030000000000    0.9599750000000002    0.1063520000000000 O
   0.1914030000000000    0.9599750000000002    0.2730186666666666 O
   0.1594519999999990    0.5195680000000009    0.4599714999999996 O
   0.1594519999999990    0.5195680000000009    0.1266381666666664 O
   0.1594519999999990    0.5195680000000009    0.2933048333333330 O
   0.1384619999999999    0.1140920000000008    0.4450889999999997 O
   0.1384619999999999    0.1140920000000008    0.1117556666666664 O
   0.1384619999999999    0.1140920000000008    0.2784223333333330 O
   0.3836949999999998    0.2549929999999998    0.4250008333333332 O
   0.3836949999999998    0.2549929999999998    0.0916674999999999 O
   0.3836949999999998    0.2549929999999998    0.2583341666666665 O
   0.2678300000000000    0.5161840000000010    0.4209289999999998 O
   0.2678300000000000    0.5161840000000010    0.0875956666666664 O
   0.2678300000000000    0.5161840000000010    0.2542623333333331 O
   0.7179100000000000    0.0698520000000002    0.4369885000000000 O
   0.7179100000000000    0.0698520000000002    0.1036551666666666 O
   0.7179100000000000    0.0698520000000002    0.2703218333333333 O
   0.3878410000000001    0.4028710000000002    0.4712368333333333 O
   0.3878410000000001    0.4028710000000002    0.1379035000000000 O
   0.3878410000000001    0.4028710000000002    0.3045701666666667 O
   0.3703140000000000    0.9993610000000012    0.4677879999999996 O
   0.3703140000000000    0.9993610000000012    0.1344546666666663 O
   0.3703140000000000    0.9993610000000012    0.3011213333333331 O
   0.1724170000000000    0.2708770000000001    0.0064051666666665 O
   0.1724170000000000    0.2708770000000001    0.1730718333333331 O
   0.1724170000000000    0.2708770000000001    0.3397384999999998 O
   0.0296230000000000    0.0548199999999999    0.0090350000000000 O
   0.0296230000000000    0.0548199999999999    0.1757016666666666 O
   0.0296230000000000    0.0548199999999999    0.3423683333333332 O
   0.0428710000000000    0.8070050000000001    0.4229405000000001 O
   0.0428710000000000    0.8070050000000001    0.0896071666666667 O
   0.0428710000000000    0.8070050000000001    0.2562738333333333 O
   0.7001120000000000    0.1780890000000001    0.0506969999999999 O
   0.7001120000000000    0.1780890000000001    0.2173636666666665 O
   0.7001120000000000    0.1780890000000001    0.3840303333333332 O
   0.5427529999999994    0.6028380000000010    0.0063521666666665 O
   0.5427529999999994    0.6028380000000010    0.1730188333333331 O
   0.5427529999999994    0.6028380000000010    0.3396854999999998 O
   0.6677839999999992    0.7085150000000000    0.0320551666666667 O
   0.6677839999999992    0.7085150000000000    0.1987218333333333 O
   0.6677839999999992    0.7085150000000000    0.3653884999999999 O
   0.5019669999999992    0.2638999999999998    0.4651320000000000 O
   0.5019669999999992    0.2638999999999998    0.1317986666666667 O
   0.5019669999999992    0.2638999999999998    0.2984653333333333 O
   0.5481920000000000    0.8703910000000000    0.4940143333333333 O
   0.5481920000000000    0.8703910000000000    0.1606810000000000 O
   0.5481920000000000    0.8703910000000000    0.3273476666666667 O
   0.5340460000000001    0.6660159999999999    0.4514464999999999 O
   0.5340460000000001    0.6660159999999999    0.1181131666666665 O
   0.5340460000000001    0.6660159999999999    0.2847798333333332 O
   0.3606370000000000    0.5156370000000000    0.4974153333333333 O
   0.3606370000000000    0.5156370000000000    0.1640820000000001 O
   0.3606370000000000    0.5156370000000000    0.3307486666666666 O
   0.7773439999999990    0.3032550000000002    0.4599646666666666 O
   0.7773439999999990    0.3032550000000002    0.1266313333333333 O
   0.7773439999999990    0.3032550000000002    0.2932980000000000 O
   0.2641879999999999    0.1172580000000010    0.4828724999999998 O
   0.2641879999999999    0.1172580000000010    0.1495391666666665 O
   0.2641879999999999    0.1172580000000010    0.3162058333333331 O
   0.8271069999999990    0.3857580000000001    0.0264321666666666 O
   0.8271069999999990    0.3857580000000001    0.1930988333333333 O
   0.8271069999999990    0.3857580000000001    0.3597655000000001 O
   0.6517999999999999    0.5210360000000001    0.4393905000000000 O
   0.6517999999999999    0.5210360000000001    0.1060571666666666 O
   0.6517999999999999    0.5210360000000001    0.2727238333333334 O
   0.5605660000000001    0.8361070000000010    0.4609414999999997 O
   0.5605660000000001    0.8361070000000010    0.1276081666666664 O
   0.5605660000000001    0.8361070000000010    0.2942748333333330 O
