Ti90 O180
1.0
  10.7847349425586163    0.0000000000000000    0.0060328200944446
  -1.2247047225377732   10.4583487854001529    9.3482210382165096
   0.0000000000000000    0.0000000000000000   62.9170570674836966
Ti O
90 180
direct
   0.3479379999999991    0.8204740000000001    0.0474645000000001 Ti
   0.3479379999999991    0.8204740000000001    0.2141311666666669 Ti
   0.3479379999999991    0.8204740000000001    0.3807978333333335 Ti
   0.1008690000000000    0.1441720000000008    0.0171301666666667 Ti
   0.1008690000000000    0.1441720000000008    0.1837968333333333 Ti
   0.1008690000000000    0.1441720000000008    0.3504634999999999 Ti
   0.8065249999999994    0.4774350000000001    0.4809470000000001 Ti
   0.8065249999999994    0.4774350000000001    0.1476136666666668 Ti
   0.8065249999999994    0.4774350000000001    0.3142803333333334 Ti
   0.7909490000000001    0.2465539999999999    0.1121388333333335 Ti
   0.7909490000000001    0.2465539999999999    0.2788055000000003 Ti
   0.7909490000000001    0.2465539999999999    0.4454721666666669 Ti
   0.4398120000000000    0.7044890000000010    0.0148366666666667 Ti
   0.4398120000000000    0.7044890000000010    0.1815033333333332 Ti
   0.4398120000000000    0.7044890000000010    0.3481699999999999 Ti
   0.1631409999999990    0.5778510000000001    0.0578431666666668 Ti
   0.1631409999999990    0.5778510000000001    0.2245098333333335 Ti
   0.1631409999999990    0.5778510000000001    0.3911765000000001 Ti
   0.5602509999999991    0.0046750000000008    0.4964813333333334 Ti
   0.5602509999999991    0.0046750000000008    0.1631480000000000 Ti
   0.5602509999999991    0.0046750000000008    0.3298146666666668 Ti
   0.5211030000000000    0.4422479999999999    0.0598046666666668 Ti
   0.5211030000000000    0.4422479999999999    0.2264713333333335 Ti
   0.5211030000000000    0.4422479999999999    0.3931380000000002 Ti
   0.5445340000000000    0.3619320000000000    0.0200991666666667 Ti
   0.5445340000000000    0.3619320000000000    0.1867658333333332 Ti
   0.5445340000000000    0.3619320000000000    0.3534324999999999 Ti
   0.3685410000000002    0.5153020000000010    0.1099856666666665 Ti
   0.3685410000000002    0.5153020000000010    0.2766523333333331 Ti
   0.3685410000000002    0.5153020000000010    0.4433189999999999 Ti
   0.0395639999999990    0.6267690000000000    0.4870445000000001 Ti
   0.0395639999999990    0.6267690000000000    0.1537111666666667 Ti
   0.0395639999999990    0.6267690000000000    0.3203778333333334 Ti
   0.4267149999999991    0.1029350000000001    0.0262581666666668 Ti
   0.4267149999999991    0.1029350000000001    0.1929248333333334 Ti
   0.4267149999999991    0.1029350000000001    0.3595915000000001 Ti
   0.4301250000000000    0.9143660000000000    0.1011540000000000 Ti
   0.4301250000000000    0.9143660000000000    0.2678206666666667 Ti
   0.4301250000000000    0.9143660000000000    0.4344873333333333 Ti
   0.8723019999999996    0.9280300000000002    0.0713453333333335 Ti
   0.8723019999999996    0.9280300000000002    0.2380120000000001 Ti
   0.8723019999999996    0.9280300000000002    0.4046786666666667 Ti
   0.1865880000000000    0.8336970000000010    0.4855924999999998 Ti
   0.1865880000000000    0.8336970000000010    0.1522591666666665 Ti
   0.1865880000000000    0.8336970000000010    0.3189258333333332 Ti
   0.6539610000000002    0.6951250000000000    0.4726453333333333 Ti
   0.6539610000000002    0.6951250000000000    0.1393120000000000 Ti
   0.6539610000000002    0.6951250000000000    0.3059786666666667 Ti
   0.3001759999999999    0.1249779999999997    0.4752848333333335 Ti
   0.3001759999999999    0.1249779999999997    0.1419515000000002 Ti
   0.3001759999999999    0.1249779999999997    0.3086181666666669 Ti
   0.2299519999999999    0.7013280000000000    0.1043690000000002 Ti
   0.2299519999999999    0.7013280000000000    0.2710356666666669 Ti
   0.2299519999999999    0.7013280000000000    0.4377023333333335 Ti
   0.2223479999999999    0.3955090000000000    0.0100325000000002 Ti
   0.2223479999999999    0.3955090000000000    0.1766991666666668 Ti
   0.2223479999999999    0.3955090000000000    0.3433658333333335 Ti
   0.5601389999999993    0.3160910000000000    0.4628620000000002 Ti
   0.5601389999999993    0.3160910000000000    0.1295286666666668 Ti
   0.5601389999999993    0.3160910000000000    0.2961953333333335 Ti
   0.0458439999999990    0.0765540000000000    0.4685270000000001 Ti
   0.0458439999999990    0.0765540000000000    0.1351936666666668 Ti
   0.0458439999999990    0.0765540000000000    0.3018603333333335 Ti
   0.7670669999999988    0.1698310000000008    0.0060930000000000 Ti
   0.7670669999999988    0.1698310000000008    0.1727596666666667 Ti
   0.7670669999999988    0.1698310000000008    0.3394263333333334 Ti
   0.0141669999999990    0.1413960000000010    0.0697926666666666 Ti
   0.0141669999999990    0.1413960000000010    0.2364593333333334 Ti
   0.0141669999999990    0.1413960000000010    0.4031260000000000 Ti
   0.9002000000000000    0.6815009999999999    0.0722583333333335 Ti
   0.9002000000000000    0.6815009999999999    0.2389250000000003 Ti
   0.9002000000000000    0.6815009999999999    0.4055916666666669 Ti
   0.9040300000000002    0.8948880000000002    0.4641423333333334 Ti
   0.9040300000000002    0.8948880000000002    0.1308090000000001 Ti
   0.9040300000000002    0.8948880000000002    0.2974756666666668 Ti
   0.2487680000000000    0.3399710000000001    0.0680035000000001 Ti
   0.2487680000000000    0.3399710000000001    0.2346701666666667 Ti
   0.2487680000000000    0.3399710000000001    0.4013368333333334 Ti
   0.6409000000000002    0.7353340000000003    0.0449471666666668 Ti
   0.6409000000000002    0.7353340000000003    0.2116138333333334 Ti
   0.6409000000000002    0.7353340000000003    0.3782805000000001 Ti
   0.6138279999999990    0.8367120000000000    0.0752581666666668 Ti
   0.6138279999999990    0.8367120000000000    0.2419248333333335 Ti
   0.6138279999999990    0.8367120000000000    0.4085915000000002 Ti
   0.5144870000000001    0.1248010000000002    0.0943018333333335 Ti
   0.5144870000000001    0.1248010000000002    0.2609685000000001 Ti
   0.5144870000000001    0.1248010000000002    0.4276351666666668 Ti
   0.7612200000000001    0.3121970000000009    0.0597143333333332 Ti
   0.7612200000000001    0.3121970000000009    0.2263809999999999 Ti
   0.7612200000000001    0.3121970000000009    0.3930476666666666 Ti
   0.8739560000000002    0.9910120000000001    0.0923935000000002 O
   0.8739560000000002    0.9910120000000001    0.2590601666666668 O
   0.8739560000000002    0.9910120000000001    0.4257268333333334 O
   0.8036150000000000    0.7133380000000001    0.0439848333333333 O
   0.8036150000000000    0.7133380000000001    0.2106515000000000 O
   0.8036150000000000    0.7133380000000001    0.3773181666666665 O
   0.9485159999999990    0.2054380000000000    0.1190291666666668 O
   0.9485159999999990    0.2054380000000000    0.2856958333333334 O
   0.9485159999999990    0.2054380000000000    0.4523625000000002 O
   0.2662120000000000    0.5014220000000009    0.0899285000000000 O
   0.2662120000000000    0.5014220000000009    0.2565951666666667 O
   0.2662120000000000    0.5014220000000009    0.4232618333333333 O
   0.8931300000000003    0.5236930000000000    0.4989746666666668 O
   0.8931300000000003    0.5236930000000000    0.1656413333333334 O
   0.8931300000000003    0.5236930000000000    0.3323080000000002 O
   0.3974479999999990    0.6925810000000001    0.0864153333333334 O
   0.3974479999999990    0.6925810000000001    0.2530820000000003 O
   0.3974479999999990    0.6925810000000001    0.4197486666666668 O
   0.2208709999999990    0.2082220000000000    0.1077736666666669 O
   0.2208709999999990    0.2082220000000000    0.2744403333333335 O
   0.2208709999999990    0.2082220000000000    0.4411070000000002 O
   0.5392760000000002    0.7732650000000000    0.1107016666666667 O
   0.5392760000000002    0.7732650000000000    0.2773683333333333 O
   0.5392760000000002    0.7732650000000000    0.4440350000000001 O
   0.5830440000000002    0.3545419999999999    0.0960886666666668 O
   0.5830440000000002    0.3545419999999999    0.2627553333333335 O
   0.5830440000000002    0.3545419999999999    0.4294220000000000 O
   0.1244670000000000    0.4280370000000000    0.0660135000000000 O
   0.1244670000000000    0.4280370000000000    0.2326801666666666 O
   0.1244670000000000    0.4280370000000000    0.3993468333333332 O
   0.0680549999999990    0.6614070000000000    0.4543625000000001 O
   0.0680549999999990    0.6614070000000000    0.1210291666666667 O
   0.0680549999999990    0.6614070000000000    0.2876958333333334 O
   0.2100409999999990    0.8127910000000002    0.0653971666666668 O
   0.2100409999999990    0.8127910000000002    0.2320638333333335 O
   0.2100409999999990    0.8127910000000002    0.3987305000000001 O
   0.6015980000000001    0.2259720000000008    0.0556248333333333 O
   0.6015980000000001    0.2259720000000008    0.2222915000000000 O
   0.6015980000000001    0.2259720000000008    0.3889581666666667 O
   0.9369569999999992    0.8329630000000001    0.0640175000000000 O
   0.9369569999999992    0.8329630000000001    0.2306841666666666 O
   0.9369569999999992    0.8329630000000001    0.3973508333333333 O
   0.7478680000000001    0.3017190000000008    0.4650870000000000 O
   0.7478680000000001    0.3017190000000008    0.1317536666666667 O
   0.7478680000000001    0.3017190000000008    0.2984203333333334 O
   0.1286800000000000    0.6762770000000001    0.0179475000000001 O
   0.1286800000000000    0.6762770000000001    0.1846141666666669 O
   0.1286800000000000    0.6762770000000001    0.3512808333333335 O
   0.3732089999999991    0.0628869999999998    0.0870985000000000 O
   0.3732089999999991    0.0628869999999998    0.2537651666666667 O
   0.3732089999999991    0.0628869999999998    0.4204318333333334 O
   0.9236479999999990    0.9405430000000010    0.4858195000000001 O
   0.9236479999999990    0.9405430000000010    0.1524861666666668 O
   0.9236479999999990    0.9405430000000010    0.3191528333333334 O
   0.9223730000000000    0.1389929999999998    0.0082636666666668 O
   0.9223730000000000    0.1389929999999998    0.1749303333333335 O
   0.9223730000000000    0.1389929999999998    0.3415970000000002 O
   0.9020089999999999    0.2535110000000002    0.0554958333333333 O
   0.9020089999999999    0.2535110000000002    0.2221624999999999 O
   0.9020089999999999    0.2535110000000002    0.3888291666666666 O
   0.5288700000000001    0.4666590000000002    0.1181973333333333 O
   0.5288700000000001    0.4666590000000002    0.2848640000000000 O
   0.5288700000000001    0.4666590000000002    0.4515306666666666 O
   0.0372740000000000    0.6255510000000000    0.0676036666666669 O
   0.0372740000000000    0.6255510000000000    0.2342703333333336 O
   0.0372740000000000    0.6255510000000000    0.4009370000000002 O
   0.7350010000000000    0.9933010000000002    0.0490216666666668 O
   0.7350010000000000    0.9933010000000002    0.2156883333333335 O
   0.7350010000000000    0.9933010000000002    0.3823550000000000 O
   0.7777479999999998    0.7652890000000001    0.4809198333333333 O
   0.7777479999999998    0.7652890000000001    0.1475865000000000 O
   0.7777479999999998    0.7652890000000001    0.3142531666666666 O
   0.1128660000000000    0.3028190000000008    0.0046846666666667 O
   0.1128660000000000    0.3028190000000008    0.1713513333333334 O
   0.1128660000000000    0.3028190000000008    0.3380180000000001 O
   0.5646110000000001    0.9682820000000010    0.1108028333333333 O
   0.5646110000000001    0.9682820000000010    0.2774694999999999 O
   0.5646110000000001    0.9682820000000010    0.4441361666666666 O
   0.8562139999999991    0.5527519999999999    0.1118283333333335 O
   0.8562139999999991    0.5527519999999999    0.2784950000000001 O
   0.8562139999999991    0.5527519999999999    0.4451616666666669 O
   0.2876890000000000    0.7950530000000001    0.1120240000000000 O
   0.2876890000000000    0.7950530000000001    0.2786906666666668 O
   0.2876890000000000    0.7950530000000001    0.4453573333333334 O
   0.3119490000000000    0.7310080000000001    0.0365818333333335 O
   0.3119490000000000    0.7310080000000001    0.2032485000000002 O
   0.3119490000000000    0.7310080000000001    0.3699151666666669 O
   0.6368840000000000    0.4425230000000001    0.0383835000000002 O
   0.6368840000000000    0.4425230000000001    0.2050501666666669 O
   0.6368840000000000    0.4425230000000001    0.3717168333333335 O
   0.4617560000000002    0.0854470000000001    0.4644336666666669 O
   0.4617560000000002    0.0854470000000001    0.1311003333333335 O
   0.4617560000000002    0.0854470000000001    0.2977670000000002 O
   0.0542060000000000    0.0632090000000008    0.1061925000000000 O
   0.0542060000000000    0.0632090000000008    0.2728591666666668 O
   0.0542060000000000    0.0632090000000008    0.4395258333333334 O
   0.3509839999999990    0.8173380000000001    0.4816390000000000 O
   0.3509839999999990    0.8173380000000001    0.1483056666666667 O
   0.3509839999999990    0.8173380000000001    0.3149723333333334 O
   0.4720379999999992    0.9702880000000003    0.0630483333333333 O
   0.4720379999999992    0.9702880000000003    0.2297150000000000 O
   0.4720379999999992    0.9702880000000003    0.3963816666666666 O
   0.7638309999999990    0.7918760000000000    0.1017111666666668 O
   0.7638309999999990    0.7918760000000000    0.2683778333333335 O
   0.7638309999999990    0.7918760000000000    0.4350445000000002 O
   0.5759319999999999    0.1332180000000011    0.0021165000000000 O
   0.5759319999999999    0.1332180000000011    0.1687831666666667 O
   0.5759319999999999    0.1332180000000011    0.3354498333333332 O
   0.4226640000000000    0.2914620000000000    0.0744396666666667 O
   0.4226640000000000    0.2914620000000000    0.2411063333333334 O
   0.4226640000000000    0.2914620000000000    0.4077730000000000 O
   0.1914030000000000    0.9599750000000002    0.4861223333333334 O
   0.1914030000000000    0.9599750000000002    0.1527890000000001 O
   0.1914030000000000    0.9599750000000002    0.3194556666666668 O
   0.1594519999999990    0.5195680000000009    0.0064084999999998 O
   0.1594519999999990    0.5195680000000009    0.1730751666666666 O
   0.1594519999999990    0.5195680000000009    0.3397418333333332 O
   0.1384619999999999    0.1140920000000008    0.4915259999999999 O
   0.1384619999999999    0.1140920000000008    0.1581926666666666 O
   0.1384619999999999    0.1140920000000008    0.3248593333333332 O
   0.3836949999999998    0.2549929999999998    0.4714378333333333 O
   0.3836949999999998    0.2549929999999998    0.1381045000000000 O
   0.3836949999999998    0.2549929999999998    0.3047711666666667 O
   0.2678300000000000    0.5161840000000010    0.4673660000000000 O
   0.2678300000000000    0.5161840000000010    0.1340326666666666 O
   0.2678300000000000    0.5161840000000010    0.3006993333333333 O
   0.7179100000000000    0.0698520000000002    0.4834255000000002 O
   0.7179100000000000    0.0698520000000002    0.1500921666666668 O
   0.7179100000000000    0.0698520000000002    0.3167588333333335 O
   0.3878410000000001    0.4028710000000002    0.0176738333333335 O
   0.3878410000000001    0.4028710000000002    0.1843405000000001 O
   0.3878410000000001    0.4028710000000002    0.3510071666666669 O
   0.3703140000000000    0.9993610000000012    0.0142249999999998 O
   0.3703140000000000    0.9993610000000012    0.1808916666666665 O
   0.3703140000000000    0.9993610000000012    0.3475583333333333 O
   0.1724170000000000    0.2708770000000001    0.0528421666666667 O
   0.1724170000000000    0.2708770000000001    0.2195088333333333 O
   0.1724170000000000    0.2708770000000001    0.3861755000000000 O
   0.0296230000000000    0.0548199999999999    0.0554720000000002 O
   0.0296230000000000    0.0548199999999999    0.2221386666666668 O
   0.0296230000000000    0.0548199999999999    0.3888053333333334 O
   0.0428710000000000    0.8070050000000001    0.4693775000000002 O
   0.0428710000000000    0.8070050000000001    0.1360441666666668 O
   0.0428710000000000    0.8070050000000001    0.3027108333333335 O
   0.7001120000000000    0.1780890000000001    0.0971340000000000 O
   0.7001120000000000    0.1780890000000001    0.2638006666666666 O
   0.7001120000000000    0.1780890000000001    0.4304673333333334 O
   0.5427529999999994    0.6028380000000010    0.0527891666666666 O
   0.5427529999999994    0.6028380000000010    0.2194558333333333 O
   0.5427529999999994    0.6028380000000010    0.3861225000000000 O
   0.6677839999999992    0.7085150000000000    0.0784921666666668 O
   0.6677839999999992    0.7085150000000000    0.2451588333333335 O
   0.6677839999999992    0.7085150000000000    0.4118255000000001 O
   0.5019669999999992    0.2638999999999998    0.0115690000000002 O
   0.5019669999999992    0.2638999999999998    0.1782356666666668 O
   0.5019669999999992    0.2638999999999998    0.3449023333333335 O
   0.5481920000000000    0.8703910000000000    0.0404513333333335 O
   0.5481920000000000    0.8703910000000000    0.2071180000000001 O
   0.5481920000000000    0.8703910000000000    0.3737846666666669 O
   0.5340460000000001    0.6660159999999999    0.4978835000000000 O
   0.5340460000000001    0.6660159999999999    0.1645501666666667 O
   0.5340460000000001    0.6660159999999999    0.3312168333333334 O
   0.3606370000000000    0.5156370000000000    0.0438523333333335 O
   0.3606370000000000    0.5156370000000000    0.2105190000000002 O
   0.3606370000000000    0.5156370000000000    0.3771856666666668 O
   0.7773439999999990    0.3032550000000002    0.0064016666666668 O
   0.7773439999999990    0.3032550000000002    0.1730683333333334 O
   0.7773439999999990    0.3032550000000002    0.3397350000000002 O
   0.2641879999999999    0.1172580000000010    0.0293095000000000 O
   0.2641879999999999    0.1172580000000010    0.1959761666666667 O
   0.2641879999999999    0.1172580000000010    0.3626428333333332 O
   0.8271069999999990    0.3857580000000001    0.0728691666666668 O
   0.8271069999999990    0.3857580000000001    0.2395358333333334 O
   0.8271069999999990    0.3857580000000001    0.4062025000000002 O
   0.6517999999999999    0.5210360000000001    0.4858275000000001 O
   0.6517999999999999    0.5210360000000001    0.1524941666666668 O
   0.6517999999999999    0.5210360000000001    0.3191608333333336 O
   0.5605660000000001    0.8361070000000010    0.0073784999999998 O
   0.5605660000000001    0.8361070000000010    0.1740451666666665 O
   0.5605660000000001    0.8361070000000010    0.3407118333333332 O
