Ti90 O180
1.0
  10.7847349425586163    0.0000000000000000    0.0060328200944446
  -1.2247047225377732   10.4583487854001529    9.3482210382165096
   0.0000000000000000    0.0000000000000000   62.9170570674836966
Ti O
90 180
direct
   0.3479379999999991    0.8204740000000001    0.0587877500000001 Ti
   0.3479379999999991    0.8204740000000001    0.2254544166666669 Ti
   0.3479379999999991    0.8204740000000001    0.3921210833333335 Ti
   0.1008690000000000    0.1441720000000008    0.0284534166666667 Ti
   0.1008690000000000    0.1441720000000008    0.1951200833333333 Ti
   0.1008690000000000    0.1441720000000008    0.3617867499999999 Ti
   0.8065249999999994    0.4774350000000001    0.4922702500000001 Ti
   0.8065249999999994    0.4774350000000001    0.1589369166666668 Ti
   0.8065249999999994    0.4774350000000001    0.3256035833333334 Ti
   0.7909490000000001    0.2465539999999999    0.1234620833333335 Ti
   0.7909490000000001    0.2465539999999999    0.2901287500000003 Ti
   0.7909490000000001    0.2465539999999999    0.4567954166666669 Ti
   0.4398120000000000    0.7044890000000010    0.0261599166666666 Ti
   0.4398120000000000    0.7044890000000010    0.1928265833333332 Ti
   0.4398120000000000    0.7044890000000010    0.3594932499999999 Ti
   0.1631409999999990    0.5778510000000001    0.0691664166666668 Ti
   0.1631409999999990    0.5778510000000001    0.2358330833333334 Ti
   0.1631409999999990    0.5778510000000001    0.4024997500000000 Ti
   0.5602509999999991    0.0046750000000008    0.0078045833333334 Ti
   0.5602509999999991    0.0046750000000008    0.1744712500000000 Ti
   0.5602509999999991    0.0046750000000008    0.3411379166666667 Ti
   0.5211030000000000    0.4422479999999999    0.0711279166666668 Ti
   0.5211030000000000    0.4422479999999999    0.2377945833333335 Ti
   0.5211030000000000    0.4422479999999999    0.4044612500000002 Ti
   0.5445340000000000    0.3619320000000000    0.0314224166666667 Ti
   0.5445340000000000    0.3619320000000000    0.1980890833333332 Ti
   0.5445340000000000    0.3619320000000000    0.3647557499999999 Ti
   0.3685410000000002    0.5153020000000010    0.1213089166666665 Ti
   0.3685410000000002    0.5153020000000010    0.2879755833333331 Ti
   0.3685410000000002    0.5153020000000010    0.4546422499999999 Ti
   0.0395639999999990    0.6267690000000000    0.4983677500000001 Ti
   0.0395639999999990    0.6267690000000000    0.1650344166666667 Ti
   0.0395639999999990    0.6267690000000000    0.3317010833333334 Ti
   0.4267149999999991    0.1029350000000001    0.0375814166666668 Ti
   0.4267149999999991    0.1029350000000001    0.2042480833333334 Ti
   0.4267149999999991    0.1029350000000001    0.3709147500000001 Ti
   0.4301250000000000    0.9143660000000000    0.1124772500000000 Ti
   0.4301250000000000    0.9143660000000000    0.2791439166666667 Ti
   0.4301250000000000    0.9143660000000000    0.4458105833333333 Ti
   0.8723019999999996    0.9280300000000002    0.0826685833333335 Ti
   0.8723019999999996    0.9280300000000002    0.2493352500000001 Ti
   0.8723019999999996    0.9280300000000002    0.4160019166666666 Ti
   0.1865880000000000    0.8336970000000010    0.4969157499999998 Ti
   0.1865880000000000    0.8336970000000010    0.1635824166666665 Ti
   0.1865880000000000    0.8336970000000010    0.3302490833333331 Ti
   0.6539610000000002    0.6951250000000000    0.4839685833333333 Ti
   0.6539610000000002    0.6951250000000000    0.1506352500000000 Ti
   0.6539610000000002    0.6951250000000000    0.3173019166666667 Ti
   0.3001759999999999    0.1249779999999997    0.4866080833333336 Ti
   0.3001759999999999    0.1249779999999997    0.1532747500000002 Ti
   0.3001759999999999    0.1249779999999997    0.3199414166666669 Ti
   0.2299519999999999    0.7013280000000000    0.1156922500000002 Ti
   0.2299519999999999    0.7013280000000000    0.2823589166666669 Ti
   0.2299519999999999    0.7013280000000000    0.4490255833333335 Ti
   0.2223479999999999    0.3955090000000000    0.0213557500000002 Ti
   0.2223479999999999    0.3955090000000000    0.1880224166666668 Ti
   0.2223479999999999    0.3955090000000000    0.3546890833333335 Ti
   0.5601389999999993    0.3160910000000000    0.4741852500000001 Ti
   0.5601389999999993    0.3160910000000000    0.1408519166666668 Ti
   0.5601389999999993    0.3160910000000000    0.3075185833333335 Ti
   0.0458439999999990    0.0765540000000000    0.4798502500000001 Ti
   0.0458439999999990    0.0765540000000000    0.1465169166666668 Ti
   0.0458439999999990    0.0765540000000000    0.3131835833333335 Ti
   0.7670669999999988    0.1698310000000008    0.0174162500000000 Ti
   0.7670669999999988    0.1698310000000008    0.1840829166666667 Ti
   0.7670669999999988    0.1698310000000008    0.3507495833333334 Ti
   0.0141669999999990    0.1413960000000010    0.0811159166666666 Ti
   0.0141669999999990    0.1413960000000010    0.2477825833333333 Ti
   0.0141669999999990    0.1413960000000010    0.4144492500000000 Ti
   0.9002000000000000    0.6815009999999999    0.0835815833333335 Ti
   0.9002000000000000    0.6815009999999999    0.2502482500000003 Ti
   0.9002000000000000    0.6815009999999999    0.4169149166666669 Ti
   0.9040300000000002    0.8948880000000002    0.4754655833333334 Ti
   0.9040300000000002    0.8948880000000002    0.1421322500000001 Ti
   0.9040300000000002    0.8948880000000002    0.3087989166666668 Ti
   0.2487680000000000    0.3399710000000001    0.0793267500000001 Ti
   0.2487680000000000    0.3399710000000001    0.2459934166666667 Ti
   0.2487680000000000    0.3399710000000001    0.4126600833333334 Ti
   0.6409000000000002    0.7353340000000003    0.0562704166666668 Ti
   0.6409000000000002    0.7353340000000003    0.2229370833333334 Ti
   0.6409000000000002    0.7353340000000003    0.3896037500000001 Ti
   0.6138279999999990    0.8367120000000000    0.0865814166666668 Ti
   0.6138279999999990    0.8367120000000000    0.2532480833333335 Ti
   0.6138279999999990    0.8367120000000000    0.4199147500000001 Ti
   0.5144870000000001    0.1248010000000002    0.1056250833333335 Ti
   0.5144870000000001    0.1248010000000002    0.2722917500000001 Ti
   0.5144870000000001    0.1248010000000002    0.4389584166666668 Ti
   0.7612200000000001    0.3121970000000009    0.0710375833333332 Ti
   0.7612200000000001    0.3121970000000009    0.2377042499999999 Ti
   0.7612200000000001    0.3121970000000009    0.4043709166666666 Ti
   0.8739560000000002    0.9910120000000001    0.1037167500000002 O
   0.8739560000000002    0.9910120000000001    0.2703834166666668 O
   0.8739560000000002    0.9910120000000001    0.4370500833333334 O
   0.8036150000000000    0.7133380000000001    0.0553080833333333 O
   0.8036150000000000    0.7133380000000001    0.2219747500000000 O
   0.8036150000000000    0.7133380000000001    0.3886414166666664 O
   0.9485159999999990    0.2054380000000000    0.1303524166666668 O
   0.9485159999999990    0.2054380000000000    0.2970190833333334 O
   0.9485159999999990    0.2054380000000000    0.4636857500000002 O
   0.2662120000000000    0.5014220000000009    0.1012517500000000 O
   0.2662120000000000    0.5014220000000009    0.2679184166666667 O
   0.2662120000000000    0.5014220000000009    0.4345850833333333 O
   0.8931300000000003    0.5236930000000000    0.0102979166666668 O
   0.8931300000000003    0.5236930000000000    0.1769645833333334 O
   0.8931300000000003    0.5236930000000000    0.3436312500000002 O
   0.3974479999999990    0.6925810000000001    0.0977385833333334 O
   0.3974479999999990    0.6925810000000001    0.2644052500000003 O
   0.3974479999999990    0.6925810000000001    0.4310719166666668 O
   0.2208709999999990    0.2082220000000000    0.1190969166666669 O
   0.2208709999999990    0.2082220000000000    0.2857635833333335 O
   0.2208709999999990    0.2082220000000000    0.4524302500000003 O
   0.5392760000000002    0.7732650000000000    0.1220249166666667 O
   0.5392760000000002    0.7732650000000000    0.2886915833333333 O
   0.5392760000000002    0.7732650000000000    0.4553582500000001 O
   0.5830440000000002    0.3545419999999999    0.1074119166666668 O
   0.5830440000000002    0.3545419999999999    0.2740785833333335 O
   0.5830440000000002    0.3545419999999999    0.4407452500000000 O
   0.1244670000000000    0.4280370000000000    0.0773367500000000 O
   0.1244670000000000    0.4280370000000000    0.2440034166666666 O
   0.1244670000000000    0.4280370000000000    0.4106700833333332 O
   0.0680549999999990    0.6614070000000000    0.4656857500000001 O
   0.0680549999999990    0.6614070000000000    0.1323524166666667 O
   0.0680549999999990    0.6614070000000000    0.2990190833333334 O
   0.2100409999999990    0.8127910000000002    0.0767204166666668 O
   0.2100409999999990    0.8127910000000002    0.2433870833333334 O
   0.2100409999999990    0.8127910000000002    0.4100537500000001 O
   0.6015980000000001    0.2259720000000008    0.0669480833333333 O
   0.6015980000000001    0.2259720000000008    0.2336147500000000 O
   0.6015980000000001    0.2259720000000008    0.4002814166666666 O
   0.9369569999999992    0.8329630000000001    0.0753407500000000 O
   0.9369569999999992    0.8329630000000001    0.2420074166666666 O
   0.9369569999999992    0.8329630000000001    0.4086740833333332 O
   0.7478680000000001    0.3017190000000008    0.4764102500000000 O
   0.7478680000000001    0.3017190000000008    0.1430769166666667 O
   0.7478680000000001    0.3017190000000008    0.3097435833333334 O
   0.1286800000000000    0.6762770000000001    0.0292707500000001 O
   0.1286800000000000    0.6762770000000001    0.1959374166666668 O
   0.1286800000000000    0.6762770000000001    0.3626040833333335 O
   0.3732089999999991    0.0628869999999998    0.0984217500000000 O
   0.3732089999999991    0.0628869999999998    0.2650884166666667 O
   0.3732089999999991    0.0628869999999998    0.4317550833333333 O
   0.9236479999999990    0.9405430000000010    0.4971427500000001 O
   0.9236479999999990    0.9405430000000010    0.1638094166666667 O
   0.9236479999999990    0.9405430000000010    0.3304760833333333 O
   0.9223730000000000    0.1389929999999998    0.0195869166666668 O
   0.9223730000000000    0.1389929999999998    0.1862535833333335 O
   0.9223730000000000    0.1389929999999998    0.3529202500000002 O
   0.9020089999999999    0.2535110000000002    0.0668190833333333 O
   0.9020089999999999    0.2535110000000002    0.2334857499999999 O
   0.9020089999999999    0.2535110000000002    0.4001524166666666 O
   0.5288700000000001    0.4666590000000002    0.1295205833333333 O
   0.5288700000000001    0.4666590000000002    0.2961872500000000 O
   0.5288700000000001    0.4666590000000002    0.4628539166666666 O
   0.0372740000000000    0.6255510000000000    0.0789269166666669 O
   0.0372740000000000    0.6255510000000000    0.2455935833333336 O
   0.0372740000000000    0.6255510000000000    0.4122602500000001 O
   0.7350010000000000    0.9933010000000002    0.0603449166666668 O
   0.7350010000000000    0.9933010000000002    0.2270115833333335 O
   0.7350010000000000    0.9933010000000002    0.3936782500000000 O
   0.7777479999999998    0.7652890000000001    0.4922430833333333 O
   0.7777479999999998    0.7652890000000001    0.1589097500000000 O
   0.7777479999999998    0.7652890000000001    0.3255764166666666 O
   0.1128660000000000    0.3028190000000008    0.0160079166666667 O
   0.1128660000000000    0.3028190000000008    0.1826745833333334 O
   0.1128660000000000    0.3028190000000008    0.3493412500000000 O
   0.5646110000000001    0.9682820000000010    0.1221260833333333 O
   0.5646110000000001    0.9682820000000010    0.2887927499999999 O
   0.5646110000000001    0.9682820000000010    0.4554594166666666 O
   0.8562139999999991    0.5527519999999999    0.1231515833333335 O
   0.8562139999999991    0.5527519999999999    0.2898182500000001 O
   0.8562139999999991    0.5527519999999999    0.4564849166666669 O
   0.2876890000000000    0.7950530000000001    0.1233472500000000 O
   0.2876890000000000    0.7950530000000001    0.2900139166666668 O
   0.2876890000000000    0.7950530000000001    0.4566805833333334 O
   0.3119490000000000    0.7310080000000001    0.0479050833333335 O
   0.3119490000000000    0.7310080000000001    0.2145717500000002 O
   0.3119490000000000    0.7310080000000001    0.3812384166666668 O
   0.6368840000000000    0.4425230000000001    0.0497067500000002 O
   0.6368840000000000    0.4425230000000001    0.2163734166666668 O
   0.6368840000000000    0.4425230000000001    0.3830400833333335 O
   0.4617560000000002    0.0854470000000001    0.4757569166666668 O
   0.4617560000000002    0.0854470000000001    0.1424235833333335 O
   0.4617560000000002    0.0854470000000001    0.3090902500000001 O
   0.0542060000000000    0.0632090000000008    0.1175157500000000 O
   0.0542060000000000    0.0632090000000008    0.2841824166666668 O
   0.0542060000000000    0.0632090000000008    0.4508490833333334 O
   0.3509839999999990    0.8173380000000001    0.4929622500000000 O
   0.3509839999999990    0.8173380000000001    0.1596289166666667 O
   0.3509839999999990    0.8173380000000001    0.3262955833333333 O
   0.4720379999999992    0.9702880000000003    0.0743715833333333 O
   0.4720379999999992    0.9702880000000003    0.2410382500000000 O
   0.4720379999999992    0.9702880000000003    0.4077049166666666 O
   0.7638309999999990    0.7918760000000000    0.1130344166666668 O
   0.7638309999999990    0.7918760000000000    0.2797010833333335 O
   0.7638309999999990    0.7918760000000000    0.4463677500000002 O
   0.5759319999999999    0.1332180000000011    0.0134397500000000 O
   0.5759319999999999    0.1332180000000011    0.1801064166666666 O
   0.5759319999999999    0.1332180000000011    0.3467730833333332 O
   0.4226640000000000    0.2914620000000000    0.0857629166666667 O
   0.4226640000000000    0.2914620000000000    0.2524295833333333 O
   0.4226640000000000    0.2914620000000000    0.4190962499999999 O
   0.1914030000000000    0.9599750000000002    0.4974455833333334 O
   0.1914030000000000    0.9599750000000002    0.1641122500000001 O
   0.1914030000000000    0.9599750000000002    0.3307789166666668 O
   0.1594519999999990    0.5195680000000009    0.0177317499999998 O
   0.1594519999999990    0.5195680000000009    0.1843984166666665 O
   0.1594519999999990    0.5195680000000009    0.3510650833333332 O
   0.1384619999999999    0.1140920000000008    0.0028492499999999 O
   0.1384619999999999    0.1140920000000008    0.1695159166666666 O
   0.1384619999999999    0.1140920000000008    0.3361825833333332 O
   0.3836949999999998    0.2549929999999998    0.4827610833333333 O
   0.3836949999999998    0.2549929999999998    0.1494277500000000 O
   0.3836949999999998    0.2549929999999998    0.3160944166666667 O
   0.2678300000000000    0.5161840000000010    0.4786892500000000 O
   0.2678300000000000    0.5161840000000010    0.1453559166666666 O
   0.2678300000000000    0.5161840000000010    0.3120225833333333 O
   0.7179100000000000    0.0698520000000002    0.4947487500000001 O
   0.7179100000000000    0.0698520000000002    0.1614154166666668 O
   0.7179100000000000    0.0698520000000002    0.3280820833333334 O
   0.3878410000000001    0.4028710000000002    0.0289970833333335 O
   0.3878410000000001    0.4028710000000002    0.1956637500000001 O
   0.3878410000000001    0.4028710000000002    0.3623304166666669 O
   0.3703140000000000    0.9993610000000012    0.0255482499999998 O
   0.3703140000000000    0.9993610000000012    0.1922149166666665 O
   0.3703140000000000    0.9993610000000012    0.3588815833333333 O
   0.1724170000000000    0.2708770000000001    0.0641654166666667 O
   0.1724170000000000    0.2708770000000001    0.2308320833333333 O
   0.1724170000000000    0.2708770000000001    0.3974987500000000 O
   0.0296230000000000    0.0548199999999999    0.0667952500000002 O
   0.0296230000000000    0.0548199999999999    0.2334619166666667 O
   0.0296230000000000    0.0548199999999999    0.4001285833333333 O
   0.0428710000000000    0.8070050000000001    0.4807007500000002 O
   0.0428710000000000    0.8070050000000001    0.1473674166666668 O
   0.0428710000000000    0.8070050000000001    0.3140340833333335 O
   0.7001120000000000    0.1780890000000001    0.1084572500000000 O
   0.7001120000000000    0.1780890000000001    0.2751239166666666 O
   0.7001120000000000    0.1780890000000001    0.4417905833333333 O
   0.5427529999999994    0.6028380000000010    0.0641124166666666 O
   0.5427529999999994    0.6028380000000010    0.2307790833333333 O
   0.5427529999999994    0.6028380000000010    0.3974457499999999 O
   0.6677839999999992    0.7085150000000000    0.0898154166666668 O
   0.6677839999999992    0.7085150000000000    0.2564820833333334 O
   0.6677839999999992    0.7085150000000000    0.4231487500000001 O
   0.5019669999999992    0.2638999999999998    0.0228922500000002 O
   0.5019669999999992    0.2638999999999998    0.1895589166666669 O
   0.5019669999999992    0.2638999999999998    0.3562255833333334 O
   0.5481920000000000    0.8703910000000000    0.0517745833333335 O
   0.5481920000000000    0.8703910000000000    0.2184412500000001 O
   0.5481920000000000    0.8703910000000000    0.3851079166666669 O
   0.5340460000000001    0.6660159999999999    0.0092067500000000 O
   0.5340460000000001    0.6660159999999999    0.1758734166666667 O
   0.5340460000000001    0.6660159999999999    0.3425400833333334 O
   0.3606370000000000    0.5156370000000000    0.0551755833333335 O
   0.3606370000000000    0.5156370000000000    0.2218422500000002 O
   0.3606370000000000    0.5156370000000000    0.3885089166666668 O
   0.7773439999999990    0.3032550000000002    0.0177249166666668 O
   0.7773439999999990    0.3032550000000002    0.1843915833333334 O
   0.7773439999999990    0.3032550000000002    0.3510582500000001 O
   0.2641879999999999    0.1172580000000010    0.0406327500000000 O
   0.2641879999999999    0.1172580000000010    0.2072994166666667 O
   0.2641879999999999    0.1172580000000010    0.3739660833333333 O
   0.8271069999999990    0.3857580000000001    0.0841924166666668 O
   0.8271069999999990    0.3857580000000001    0.2508590833333334 O
   0.8271069999999990    0.3857580000000001    0.4175257500000003 O
   0.6517999999999999    0.5210360000000001    0.4971507500000001 O
   0.6517999999999999    0.5210360000000001    0.1638174166666667 O
   0.6517999999999999    0.5210360000000001    0.3304840833333336 O
   0.5605660000000001    0.8361070000000010    0.0187017499999998 O
   0.5605660000000001    0.8361070000000010    0.1853684166666665 O
   0.5605660000000001    0.8361070000000010    0.3520350833333332 O
