Ti90 O180
1.0
  10.7847349425586163    0.0000000000000000    0.0060328200944446
  -1.2247047225377732   10.4583487854001529    9.3482210382165096
   0.0000000000000000    0.0000000000000000   62.9170570674836966
Ti O
90 180
direct
   0.3479379999999991    0.8204740000000001    0.0366627500000003 Ti
   0.3479379999999991    0.8204740000000001    0.2033294166666670 Ti
   0.3479379999999991    0.8204740000000001    0.3699960833333337 Ti
   0.1008690000000000    0.1441720000000008    0.0063284166666669 Ti
   0.1008690000000000    0.1441720000000008    0.1729950833333335 Ti
   0.1008690000000000    0.1441720000000008    0.3396617500000001 Ti
   0.8065249999999994    0.4774350000000001    0.4701452500000003 Ti
   0.8065249999999994    0.4774350000000001    0.1368119166666670 Ti
   0.8065249999999994    0.4774350000000001    0.3034785833333336 Ti
   0.7909490000000001    0.2465539999999999    0.1013370833333337 Ti
   0.7909490000000001    0.2465539999999999    0.2680037500000004 Ti
   0.7909490000000001    0.2465539999999999    0.4346704166666671 Ti
   0.4398120000000000    0.7044890000000010    0.0040349166666668 Ti
   0.4398120000000000    0.7044890000000010    0.1707015833333334 Ti
   0.4398120000000000    0.7044890000000010    0.3373682500000001 Ti
   0.1631409999999990    0.5778510000000001    0.0470414166666670 Ti
   0.1631409999999990    0.5778510000000001    0.2137080833333336 Ti
   0.1631409999999990    0.5778510000000001    0.3803747500000003 Ti
   0.5602509999999991    0.0046750000000008    0.4856795833333336 Ti
   0.5602509999999991    0.0046750000000008    0.1523462500000002 Ti
   0.5602509999999991    0.0046750000000008    0.3190129166666669 Ti
   0.5211030000000000    0.4422479999999999    0.0490029166666670 Ti
   0.5211030000000000    0.4422479999999999    0.2156695833333337 Ti
   0.5211030000000000    0.4422479999999999    0.3823362500000004 Ti
   0.5445340000000000    0.3619320000000000    0.0092974166666669 Ti
   0.5445340000000000    0.3619320000000000    0.1759640833333334 Ti
   0.5445340000000000    0.3619320000000000    0.3426307500000001 Ti
   0.3685410000000002    0.5153020000000010    0.0991839166666666 Ti
   0.3685410000000002    0.5153020000000010    0.2658505833333333 Ti
   0.3685410000000002    0.5153020000000010    0.4325172500000001 Ti
   0.0395639999999990    0.6267690000000000    0.4762427500000003 Ti
   0.0395639999999990    0.6267690000000000    0.1429094166666669 Ti
   0.0395639999999990    0.6267690000000000    0.3095760833333336 Ti
   0.4267149999999991    0.1029350000000001    0.0154564166666670 Ti
   0.4267149999999991    0.1029350000000001    0.1821230833333335 Ti
   0.4267149999999991    0.1029350000000001    0.3487897500000003 Ti
   0.4301250000000000    0.9143660000000000    0.0903522500000002 Ti
   0.4301250000000000    0.9143660000000000    0.2570189166666669 Ti
   0.4301250000000000    0.9143660000000000    0.4236855833333335 Ti
   0.8723019999999996    0.9280300000000002    0.0605435833333337 Ti
   0.8723019999999996    0.9280300000000002    0.2272102500000003 Ti
   0.8723019999999996    0.9280300000000002    0.3938769166666669 Ti
   0.1865880000000000    0.8336970000000010    0.4747907500000000 Ti
   0.1865880000000000    0.8336970000000010    0.1414574166666667 Ti
   0.1865880000000000    0.8336970000000010    0.3081240833333334 Ti
   0.6539610000000002    0.6951250000000000    0.4618435833333335 Ti
   0.6539610000000002    0.6951250000000000    0.1285102500000002 Ti
   0.6539610000000002    0.6951250000000000    0.2951769166666669 Ti
   0.3001759999999999    0.1249779999999997    0.4644830833333337 Ti
   0.3001759999999999    0.1249779999999997    0.1311497500000004 Ti
   0.3001759999999999    0.1249779999999997    0.2978164166666670 Ti
   0.2299519999999999    0.7013280000000000    0.0935672500000004 Ti
   0.2299519999999999    0.7013280000000000    0.2602339166666671 Ti
   0.2299519999999999    0.7013280000000000    0.4269005833333337 Ti
   0.2223479999999999    0.3955090000000000    0.4992307500000004 Ti
   0.2223479999999999    0.3955090000000000    0.1658974166666670 Ti
   0.2223479999999999    0.3955090000000000    0.3325640833333336 Ti
   0.5601389999999993    0.3160910000000000    0.4520602500000003 Ti
   0.5601389999999993    0.3160910000000000    0.1187269166666670 Ti
   0.5601389999999993    0.3160910000000000    0.2853935833333336 Ti
   0.0458439999999990    0.0765540000000000    0.4577252500000003 Ti
   0.0458439999999990    0.0765540000000000    0.1243919166666670 Ti
   0.0458439999999990    0.0765540000000000    0.2910585833333337 Ti
   0.7670669999999988    0.1698310000000008    0.4952912500000002 Ti
   0.7670669999999988    0.1698310000000008    0.1619579166666669 Ti
   0.7670669999999988    0.1698310000000008    0.3286245833333336 Ti
   0.0141669999999990    0.1413960000000010    0.0589909166666668 Ti
   0.0141669999999990    0.1413960000000010    0.2256575833333335 Ti
   0.0141669999999990    0.1413960000000010    0.3923242500000002 Ti
   0.9002000000000000    0.6815009999999999    0.0614565833333337 Ti
   0.9002000000000000    0.6815009999999999    0.2281232500000004 Ti
   0.9002000000000000    0.6815009999999999    0.3947899166666671 Ti
   0.9040300000000002    0.8948880000000002    0.4533405833333336 Ti
   0.9040300000000002    0.8948880000000002    0.1200072500000003 Ti
   0.9040300000000002    0.8948880000000002    0.2866739166666670 Ti
   0.2487680000000000    0.3399710000000001    0.0572017500000003 Ti
   0.2487680000000000    0.3399710000000001    0.2238684166666669 Ti
   0.2487680000000000    0.3399710000000001    0.3905350833333336 Ti
   0.6409000000000002    0.7353340000000003    0.0341454166666670 Ti
   0.6409000000000002    0.7353340000000003    0.2008120833333336 Ti
   0.6409000000000002    0.7353340000000003    0.3674787500000003 Ti
   0.6138279999999990    0.8367120000000000    0.0644564166666669 Ti
   0.6138279999999990    0.8367120000000000    0.2311230833333337 Ti
   0.6138279999999990    0.8367120000000000    0.3977897500000003 Ti
   0.5144870000000001    0.1248010000000002    0.0835000833333336 Ti
   0.5144870000000001    0.1248010000000002    0.2501667500000003 Ti
   0.5144870000000001    0.1248010000000002    0.4168334166666670 Ti
   0.7612200000000001    0.3121970000000009    0.0489125833333334 Ti
   0.7612200000000001    0.3121970000000009    0.2155792500000001 Ti
   0.7612200000000001    0.3121970000000009    0.3822459166666667 Ti
   0.8739560000000002    0.9910120000000001    0.0815917500000004 O
   0.8739560000000002    0.9910120000000001    0.2482584166666670 O
   0.8739560000000002    0.9910120000000001    0.4149250833333336 O
   0.8036150000000000    0.7133380000000001    0.0331830833333335 O
   0.8036150000000000    0.7133380000000001    0.1998497500000002 O
   0.8036150000000000    0.7133380000000001    0.3665164166666666 O
   0.9485159999999990    0.2054380000000000    0.1082274166666670 O
   0.9485159999999990    0.2054380000000000    0.2748940833333335 O
   0.9485159999999990    0.2054380000000000    0.4415607500000004 O
   0.2662120000000000    0.5014220000000009    0.0791267500000002 O
   0.2662120000000000    0.5014220000000009    0.2457934166666669 O
   0.2662120000000000    0.5014220000000009    0.4124600833333335 O
   0.8931300000000003    0.5236930000000000    0.4881729166666670 O
   0.8931300000000003    0.5236930000000000    0.1548395833333336 O
   0.8931300000000003    0.5236930000000000    0.3215062500000003 O
   0.3974479999999990    0.6925810000000001    0.0756135833333336 O
   0.3974479999999990    0.6925810000000001    0.2422802500000004 O
   0.3974479999999990    0.6925810000000001    0.4089469166666670 O
   0.2208709999999990    0.2082220000000000    0.0969719166666670 O
   0.2208709999999990    0.2082220000000000    0.2636385833333337 O
   0.2208709999999990    0.2082220000000000    0.4303052500000004 O
   0.5392760000000002    0.7732650000000000    0.0998999166666669 O
   0.5392760000000002    0.7732650000000000    0.2665665833333335 O
   0.5392760000000002    0.7732650000000000    0.4332332500000002 O
   0.5830440000000002    0.3545419999999999    0.0852869166666670 O
   0.5830440000000002    0.3545419999999999    0.2519535833333337 O
   0.5830440000000002    0.3545419999999999    0.4186202500000002 O
   0.1244670000000000    0.4280370000000000    0.0552117500000002 O
   0.1244670000000000    0.4280370000000000    0.2218784166666667 O
   0.1244670000000000    0.4280370000000000    0.3885450833333334 O
   0.0680549999999990    0.6614070000000000    0.4435607500000003 O
   0.0680549999999990    0.6614070000000000    0.1102274166666669 O
   0.0680549999999990    0.6614070000000000    0.2768940833333335 O
   0.2100409999999990    0.8127910000000002    0.0545954166666670 O
   0.2100409999999990    0.8127910000000002    0.2212620833333336 O
   0.2100409999999990    0.8127910000000002    0.3879287500000003 O
   0.6015980000000001    0.2259720000000008    0.0448230833333335 O
   0.6015980000000001    0.2259720000000008    0.2114897500000002 O
   0.6015980000000001    0.2259720000000008    0.3781564166666668 O
   0.9369569999999992    0.8329630000000001    0.0532157500000002 O
   0.9369569999999992    0.8329630000000001    0.2198824166666668 O
   0.9369569999999992    0.8329630000000001    0.3865490833333334 O
   0.7478680000000001    0.3017190000000008    0.4542852500000002 O
   0.7478680000000001    0.3017190000000008    0.1209519166666669 O
   0.7478680000000001    0.3017190000000008    0.2876185833333336 O
   0.1286800000000000    0.6762770000000001    0.0071457500000003 O
   0.1286800000000000    0.6762770000000001    0.1738124166666670 O
   0.1286800000000000    0.6762770000000001    0.3404790833333337 O
   0.3732089999999991    0.0628869999999998    0.0762967500000002 O
   0.3732089999999991    0.0628869999999998    0.2429634166666669 O
   0.3732089999999991    0.0628869999999998    0.4096300833333336 O
   0.9236479999999990    0.9405430000000010    0.4750177500000002 O
   0.9236479999999990    0.9405430000000010    0.1416844166666669 O
   0.9236479999999990    0.9405430000000010    0.3083510833333336 O
   0.9223730000000000    0.1389929999999998    0.4974619166666670 O
   0.9223730000000000    0.1389929999999998    0.1641285833333337 O
   0.9223730000000000    0.1389929999999998    0.3307952500000004 O
   0.9020089999999999    0.2535110000000002    0.0446940833333335 O
   0.9020089999999999    0.2535110000000002    0.2113607500000001 O
   0.9020089999999999    0.2535110000000002    0.3780274166666667 O
   0.5288700000000001    0.4666590000000002    0.1073955833333335 O
   0.5288700000000001    0.4666590000000002    0.2740622500000002 O
   0.5288700000000001    0.4666590000000002    0.4407289166666668 O
   0.0372740000000000    0.6255510000000000    0.0568019166666670 O
   0.0372740000000000    0.6255510000000000    0.2234685833333337 O
   0.0372740000000000    0.6255510000000000    0.3901352500000003 O
   0.7350010000000000    0.9933010000000002    0.0382199166666670 O
   0.7350010000000000    0.9933010000000002    0.2048865833333336 O
   0.7350010000000000    0.9933010000000002    0.3715532500000002 O
   0.7777479999999998    0.7652890000000001    0.4701180833333335 O
   0.7777479999999998    0.7652890000000001    0.1367847500000002 O
   0.7777479999999998    0.7652890000000001    0.3034514166666668 O
   0.1128660000000000    0.3028190000000008    0.4938829166666669 O
   0.1128660000000000    0.3028190000000008    0.1605495833333336 O
   0.1128660000000000    0.3028190000000008    0.3272162500000003 O
   0.5646110000000001    0.9682820000000010    0.1000010833333335 O
   0.5646110000000001    0.9682820000000010    0.2666677500000001 O
   0.5646110000000001    0.9682820000000010    0.4333344166666667 O
   0.8562139999999991    0.5527519999999999    0.1010265833333336 O
   0.8562139999999991    0.5527519999999999    0.2676932500000003 O
   0.8562139999999991    0.5527519999999999    0.4343599166666671 O
   0.2876890000000000    0.7950530000000001    0.1012222500000002 O
   0.2876890000000000    0.7950530000000001    0.2678889166666669 O
   0.2876890000000000    0.7950530000000001    0.4345555833333336 O
   0.3119490000000000    0.7310080000000001    0.0257800833333337 O
   0.3119490000000000    0.7310080000000001    0.1924467500000004 O
   0.3119490000000000    0.7310080000000001    0.3591134166666670 O
   0.6368840000000000    0.4425230000000001    0.0275817500000003 O
   0.6368840000000000    0.4425230000000001    0.1942484166666670 O
   0.6368840000000000    0.4425230000000001    0.3609150833333337 O
   0.4617560000000002    0.0854470000000001    0.4536319166666670 O
   0.4617560000000002    0.0854470000000001    0.1202985833333337 O
   0.4617560000000002    0.0854470000000001    0.2869652500000003 O
   0.0542060000000000    0.0632090000000008    0.0953907500000002 O
   0.0542060000000000    0.0632090000000008    0.2620574166666669 O
   0.0542060000000000    0.0632090000000008    0.4287240833333336 O
   0.3509839999999990    0.8173380000000001    0.4708372500000002 O
   0.3509839999999990    0.8173380000000001    0.1375039166666669 O
   0.3509839999999990    0.8173380000000001    0.3041705833333335 O
   0.4720379999999992    0.9702880000000003    0.0522465833333335 O
   0.4720379999999992    0.9702880000000003    0.2189132500000002 O
   0.4720379999999992    0.9702880000000003    0.3855799166666668 O
   0.7638309999999990    0.7918760000000000    0.0909094166666670 O
   0.7638309999999990    0.7918760000000000    0.2575760833333337 O
   0.7638309999999990    0.7918760000000000    0.4242427500000003 O
   0.5759319999999999    0.1332180000000011    0.4913147500000001 O
   0.5759319999999999    0.1332180000000011    0.1579814166666668 O
   0.5759319999999999    0.1332180000000011    0.3246480833333334 O
   0.4226640000000000    0.2914620000000000    0.0636379166666668 O
   0.4226640000000000    0.2914620000000000    0.2303045833333335 O
   0.4226640000000000    0.2914620000000000    0.3969712500000002 O
   0.1914030000000000    0.9599750000000002    0.4753205833333336 O
   0.1914030000000000    0.9599750000000002    0.1419872500000003 O
   0.1914030000000000    0.9599750000000002    0.3086539166666670 O
   0.1594519999999990    0.5195680000000009    0.4956067500000000 O
   0.1594519999999990    0.5195680000000009    0.1622734166666667 O
   0.1594519999999990    0.5195680000000009    0.3289400833333334 O
   0.1384619999999999    0.1140920000000008    0.4807242500000001 O
   0.1384619999999999    0.1140920000000008    0.1473909166666668 O
   0.1384619999999999    0.1140920000000008    0.3140575833333334 O
   0.3836949999999998    0.2549929999999998    0.4606360833333335 O
   0.3836949999999998    0.2549929999999998    0.1273027500000002 O
   0.3836949999999998    0.2549929999999998    0.2939694166666669 O
   0.2678300000000000    0.5161840000000010    0.4565642500000002 O
   0.2678300000000000    0.5161840000000010    0.1232309166666668 O
   0.2678300000000000    0.5161840000000010    0.2898975833333335 O
   0.7179100000000000    0.0698520000000002    0.4726237500000003 O
   0.7179100000000000    0.0698520000000002    0.1392904166666670 O
   0.7179100000000000    0.0698520000000002    0.3059570833333337 O
   0.3878410000000001    0.4028710000000002    0.0068720833333336 O
   0.3878410000000001    0.4028710000000002    0.1735387500000003 O
   0.3878410000000001    0.4028710000000002    0.3402054166666670 O
   0.3703140000000000    0.9993610000000012    0.0034232500000000 O
   0.3703140000000000    0.9993610000000012    0.1700899166666666 O
   0.3703140000000000    0.9993610000000012    0.3367565833333335 O
   0.1724170000000000    0.2708770000000001    0.0420404166666669 O
   0.1724170000000000    0.2708770000000001    0.2087070833333335 O
   0.1724170000000000    0.2708770000000001    0.3753737500000002 O
   0.0296230000000000    0.0548199999999999    0.0446702500000004 O
   0.0296230000000000    0.0548199999999999    0.2113369166666669 O
   0.0296230000000000    0.0548199999999999    0.3780035833333336 O
   0.0428710000000000    0.8070050000000001    0.4585757500000004 O
   0.0428710000000000    0.8070050000000001    0.1252424166666670 O
   0.0428710000000000    0.8070050000000001    0.2919090833333337 O
   0.7001120000000000    0.1780890000000001    0.0863322500000002 O
   0.7001120000000000    0.1780890000000001    0.2529989166666668 O
   0.7001120000000000    0.1780890000000001    0.4196655833333335 O
   0.5427529999999994    0.6028380000000010    0.0419874166666668 O
   0.5427529999999994    0.6028380000000010    0.2086540833333335 O
   0.5427529999999994    0.6028380000000010    0.3753207500000001 O
   0.6677839999999992    0.7085150000000000    0.0676904166666670 O
   0.6677839999999992    0.7085150000000000    0.2343570833333337 O
   0.6677839999999992    0.7085150000000000    0.4010237500000003 O
   0.5019669999999992    0.2638999999999998    0.0007672500000004 O
   0.5019669999999992    0.2638999999999998    0.1674339166666670 O
   0.5019669999999992    0.2638999999999998    0.3341005833333336 O
   0.5481920000000000    0.8703910000000000    0.0296495833333336 O
   0.5481920000000000    0.8703910000000000    0.1963162500000003 O
   0.5481920000000000    0.8703910000000000    0.3629829166666670 O
   0.5340460000000001    0.6660159999999999    0.4870817500000002 O
   0.5340460000000001    0.6660159999999999    0.1537484166666669 O
   0.5340460000000001    0.6660159999999999    0.3204150833333336 O
   0.3606370000000000    0.5156370000000000    0.0330505833333337 O
   0.3606370000000000    0.5156370000000000    0.1997172500000004 O
   0.3606370000000000    0.5156370000000000    0.3663839166666670 O
   0.7773439999999990    0.3032550000000002    0.4955999166666670 O
   0.7773439999999990    0.3032550000000002    0.1622665833333336 O
   0.7773439999999990    0.3032550000000002    0.3289332500000003 O
   0.2641879999999999    0.1172580000000010    0.0185077500000002 O
   0.2641879999999999    0.1172580000000010    0.1851744166666668 O
   0.2641879999999999    0.1172580000000010    0.3518410833333334 O
   0.8271069999999990    0.3857580000000001    0.0620674166666670 O
   0.8271069999999990    0.3857580000000001    0.2287340833333336 O
   0.8271069999999990    0.3857580000000001    0.3954007500000004 O
   0.6517999999999999    0.5210360000000001    0.4750257500000003 O
   0.6517999999999999    0.5210360000000001    0.1416924166666669 O
   0.6517999999999999    0.5210360000000001    0.3083590833333337 O
   0.5605660000000001    0.8361070000000010    0.4965767500000000 O
   0.5605660000000001    0.8361070000000010    0.1632434166666667 O
   0.5605660000000001    0.8361070000000010    0.3299100833333334 O
