Ti90 O180
1.0
  10.7847349425586163    0.0000000000000000    0.0060328200944446
  -1.2247047225377732   10.4583487854001529    9.3482210382165096
   0.0000000000000000    0.0000000000000000   62.9170570674836966
Ti O
90 180
direct
   0.3479379999999991    0.8204740000000001    0.0285780000000000 Ti
   0.3479379999999991    0.8204740000000001    0.1952446666666668 Ti
   0.3479379999999991    0.8204740000000001    0.3619113333333334 Ti
   0.1008690000000000    0.1441720000000008    0.4982436666666666 Ti
   0.1008690000000000    0.1441720000000008    0.1649103333333332 Ti
   0.1008690000000000    0.1441720000000008    0.3315769999999998 Ti
   0.8065249999999994    0.4774350000000001    0.4620605000000000 Ti
   0.8065249999999994    0.4774350000000001    0.1287271666666667 Ti
   0.8065249999999994    0.4774350000000001    0.2953938333333334 Ti
   0.7909490000000001    0.2465539999999999    0.0932523333333334 Ti
   0.7909490000000001    0.2465539999999999    0.2599190000000002 Ti
   0.7909490000000001    0.2465539999999999    0.4265856666666668 Ti
   0.4398120000000000    0.7044890000000010    0.4959501666666666 Ti
   0.4398120000000000    0.7044890000000010    0.1626168333333332 Ti
   0.4398120000000000    0.7044890000000010    0.3292834999999998 Ti
   0.1631409999999990    0.5778510000000001    0.0389566666666668 Ti
   0.1631409999999990    0.5778510000000001    0.2056233333333334 Ti
   0.1631409999999990    0.5778510000000001    0.3722900000000000 Ti
   0.5602509999999991    0.0046750000000008    0.4775948333333333 Ti
   0.5602509999999991    0.0046750000000008    0.1442615000000000 Ti
   0.5602509999999991    0.0046750000000008    0.3109281666666667 Ti
   0.5211030000000000    0.4422479999999999    0.0409181666666668 Ti
   0.5211030000000000    0.4422479999999999    0.2075848333333334 Ti
   0.5211030000000000    0.4422479999999999    0.3742515000000001 Ti
   0.5445340000000000    0.3619320000000000    0.0012126666666666 Ti
   0.5445340000000000    0.3619320000000000    0.1678793333333332 Ti
   0.5445340000000000    0.3619320000000000    0.3345459999999998 Ti
   0.3685410000000002    0.5153020000000010    0.0910991666666664 Ti
   0.3685410000000002    0.5153020000000010    0.2577658333333330 Ti
   0.3685410000000002    0.5153020000000010    0.4244324999999998 Ti
   0.0395639999999990    0.6267690000000000    0.4681580000000001 Ti
   0.0395639999999990    0.6267690000000000    0.1348246666666666 Ti
   0.0395639999999990    0.6267690000000000    0.3014913333333333 Ti
   0.4267149999999991    0.1029350000000001    0.0073716666666667 Ti
   0.4267149999999991    0.1029350000000001    0.1740383333333333 Ti
   0.4267149999999991    0.1029350000000001    0.3407050000000000 Ti
   0.4301250000000000    0.9143660000000000    0.0822675000000000 Ti
   0.4301250000000000    0.9143660000000000    0.2489341666666666 Ti
   0.4301250000000000    0.9143660000000000    0.4156008333333333 Ti
   0.8723019999999996    0.9280300000000002    0.0524588333333334 Ti
   0.8723019999999996    0.9280300000000002    0.2191255000000000 Ti
   0.8723019999999996    0.9280300000000002    0.3857921666666666 Ti
   0.1865880000000000    0.8336970000000010    0.4667059999999997 Ti
   0.1865880000000000    0.8336970000000010    0.1333726666666664 Ti
   0.1865880000000000    0.8336970000000010    0.3000393333333331 Ti
   0.6539610000000002    0.6951250000000000    0.4537588333333332 Ti
   0.6539610000000002    0.6951250000000000    0.1204255000000000 Ti
   0.6539610000000002    0.6951250000000000    0.2870921666666666 Ti
   0.3001759999999999    0.1249779999999997    0.4563983333333335 Ti
   0.3001759999999999    0.1249779999999997    0.1230650000000001 Ti
   0.3001759999999999    0.1249779999999997    0.2897316666666668 Ti
   0.2299519999999999    0.7013280000000000    0.0854825000000001 Ti
   0.2299519999999999    0.7013280000000000    0.2521491666666668 Ti
   0.2299519999999999    0.7013280000000000    0.4188158333333334 Ti
   0.2223479999999999    0.3955090000000000    0.4911460000000001 Ti
   0.2223479999999999    0.3955090000000000    0.1578126666666667 Ti
   0.2223479999999999    0.3955090000000000    0.3244793333333334 Ti
   0.5601389999999993    0.3160910000000000    0.4439755000000001 Ti
   0.5601389999999993    0.3160910000000000    0.1106421666666668 Ti
   0.5601389999999993    0.3160910000000000    0.2773088333333334 Ti
   0.0458439999999990    0.0765540000000000    0.4496405000000001 Ti
   0.0458439999999990    0.0765540000000000    0.1163071666666667 Ti
   0.0458439999999990    0.0765540000000000    0.2829738333333334 Ti
   0.7670669999999988    0.1698310000000008    0.4872065000000000 Ti
   0.7670669999999988    0.1698310000000008    0.1538731666666666 Ti
   0.7670669999999988    0.1698310000000008    0.3205398333333333 Ti
   0.0141669999999990    0.1413960000000010    0.0509061666666666 Ti
   0.0141669999999990    0.1413960000000010    0.2175728333333333 Ti
   0.0141669999999990    0.1413960000000010    0.3842394999999999 Ti
   0.9002000000000000    0.6815009999999999    0.0533718333333334 Ti
   0.9002000000000000    0.6815009999999999    0.2200385000000002 Ti
   0.9002000000000000    0.6815009999999999    0.3867051666666668 Ti
   0.9040300000000002    0.8948880000000002    0.4452558333333334 Ti
   0.9040300000000002    0.8948880000000002    0.1119225000000000 Ti
   0.9040300000000002    0.8948880000000002    0.2785891666666667 Ti
   0.2487680000000000    0.3399710000000001    0.0491170000000001 Ti
   0.2487680000000000    0.3399710000000001    0.2157836666666667 Ti
   0.2487680000000000    0.3399710000000001    0.3824503333333333 Ti
   0.6409000000000002    0.7353340000000003    0.0260606666666668 Ti
   0.6409000000000002    0.7353340000000003    0.1927273333333333 Ti
   0.6409000000000002    0.7353340000000003    0.3593940000000000 Ti
   0.6138279999999990    0.8367120000000000    0.0563716666666667 Ti
   0.6138279999999990    0.8367120000000000    0.2230383333333334 Ti
   0.6138279999999990    0.8367120000000000    0.3897050000000001 Ti
   0.5144870000000001    0.1248010000000002    0.0754153333333334 Ti
   0.5144870000000001    0.1248010000000002    0.2420820000000000 Ti
   0.5144870000000001    0.1248010000000002    0.4087486666666667 Ti
   0.7612200000000001    0.3121970000000009    0.0408278333333331 Ti
   0.7612200000000001    0.3121970000000009    0.2074944999999998 Ti
   0.7612200000000001    0.3121970000000009    0.3741611666666665 Ti
   0.8739560000000002    0.9910120000000001    0.0735070000000001 O
   0.8739560000000002    0.9910120000000001    0.2401736666666667 O
   0.8739560000000002    0.9910120000000001    0.4068403333333334 O
   0.8036150000000000    0.7133380000000001    0.0250983333333332 O
   0.8036150000000000    0.7133380000000001    0.1917649999999999 O
   0.8036150000000000    0.7133380000000001    0.3584316666666664 O
   0.9485159999999990    0.2054380000000000    0.1001426666666668 O
   0.9485159999999990    0.2054380000000000    0.2668093333333333 O
   0.9485159999999990    0.2054380000000000    0.4334760000000001 O
   0.2662120000000000    0.5014220000000009    0.0710419999999999 O
   0.2662120000000000    0.5014220000000009    0.2377086666666666 O
   0.2662120000000000    0.5014220000000009    0.4043753333333333 O
   0.8931300000000003    0.5236930000000000    0.4800881666666668 O
   0.8931300000000003    0.5236930000000000    0.1467548333333334 O
   0.8931300000000003    0.5236930000000000    0.3134215000000001 O
   0.3974479999999990    0.6925810000000001    0.0675288333333334 O
   0.3974479999999990    0.6925810000000001    0.2341955000000002 O
   0.3974479999999990    0.6925810000000001    0.4008621666666667 O
   0.2208709999999990    0.2082220000000000    0.0888871666666668 O
   0.2208709999999990    0.2082220000000000    0.2555538333333334 O
   0.2208709999999990    0.2082220000000000    0.4222205000000002 O
   0.5392760000000002    0.7732650000000000    0.0918151666666666 O
   0.5392760000000002    0.7732650000000000    0.2584818333333332 O
   0.5392760000000002    0.7732650000000000    0.4251485000000000 O
   0.5830440000000002    0.3545419999999999    0.0772021666666667 O
   0.5830440000000002    0.3545419999999999    0.2438688333333334 O
   0.5830440000000002    0.3545419999999999    0.4105354999999999 O
   0.1244670000000000    0.4280370000000000    0.0471269999999999 O
   0.1244670000000000    0.4280370000000000    0.2137936666666665 O
   0.1244670000000000    0.4280370000000000    0.3804603333333331 O
   0.0680549999999990    0.6614070000000000    0.4354760000000001 O
   0.0680549999999990    0.6614070000000000    0.1021426666666667 O
   0.0680549999999990    0.6614070000000000    0.2688093333333333 O
   0.2100409999999990    0.8127910000000002    0.0465106666666667 O
   0.2100409999999990    0.8127910000000002    0.2131773333333334 O
   0.2100409999999990    0.8127910000000002    0.3798440000000000 O
   0.6015980000000001    0.2259720000000008    0.0367383333333333 O
   0.6015980000000001    0.2259720000000008    0.2034049999999999 O
   0.6015980000000001    0.2259720000000008    0.3700716666666666 O
   0.9369569999999992    0.8329630000000001    0.0451309999999999 O
   0.9369569999999992    0.8329630000000001    0.2117976666666666 O
   0.9369569999999992    0.8329630000000001    0.3784643333333332 O
   0.7478680000000001    0.3017190000000008    0.4462004999999999 O
   0.7478680000000001    0.3017190000000008    0.1128671666666666 O
   0.7478680000000001    0.3017190000000008    0.2795338333333333 O
   0.1286800000000000    0.6762770000000001    0.4990610000000000 O
   0.1286800000000000    0.6762770000000001    0.1657276666666668 O
   0.1286800000000000    0.6762770000000001    0.3323943333333334 O
   0.3732089999999991    0.0628869999999998    0.0682120000000000 O
   0.3732089999999991    0.0628869999999998    0.2348786666666666 O
   0.3732089999999991    0.0628869999999998    0.4015453333333333 O
   0.9236479999999990    0.9405430000000010    0.4669330000000000 O
   0.9236479999999990    0.9405430000000010    0.1335996666666667 O
   0.9236479999999990    0.9405430000000010    0.3002663333333333 O
   0.9223730000000000    0.1389929999999998    0.4893771666666668 O
   0.9223730000000000    0.1389929999999998    0.1560438333333334 O
   0.9223730000000000    0.1389929999999998    0.3227105000000001 O
   0.9020089999999999    0.2535110000000002    0.0366093333333333 O
   0.9020089999999999    0.2535110000000002    0.2032759999999998 O
   0.9020089999999999    0.2535110000000002    0.3699426666666665 O
   0.5288700000000001    0.4666590000000002    0.0993108333333332 O
   0.5288700000000001    0.4666590000000002    0.2659774999999999 O
   0.5288700000000001    0.4666590000000002    0.4326441666666666 O
   0.0372740000000000    0.6255510000000000    0.0487171666666668 O
   0.0372740000000000    0.6255510000000000    0.2153838333333335 O
   0.0372740000000000    0.6255510000000000    0.3820505000000001 O
   0.7350010000000000    0.9933010000000002    0.0301351666666667 O
   0.7350010000000000    0.9933010000000002    0.1968018333333334 O
   0.7350010000000000    0.9933010000000002    0.3634684999999999 O
   0.7777479999999998    0.7652890000000001    0.4620333333333332 O
   0.7777479999999998    0.7652890000000001    0.1286999999999999 O
   0.7777479999999998    0.7652890000000001    0.2953666666666665 O
   0.1128660000000000    0.3028190000000008    0.4857981666666666 O
   0.1128660000000000    0.3028190000000008    0.1524648333333333 O
   0.1128660000000000    0.3028190000000008    0.3191315000000000 O
   0.5646110000000001    0.9682820000000010    0.0919163333333332 O
   0.5646110000000001    0.9682820000000010    0.2585829999999998 O
   0.5646110000000001    0.9682820000000010    0.4252496666666665 O
   0.8562139999999991    0.5527519999999999    0.0929418333333334 O
   0.8562139999999991    0.5527519999999999    0.2596085000000000 O
   0.8562139999999991    0.5527519999999999    0.4262751666666668 O
   0.2876890000000000    0.7950530000000001    0.0931375000000000 O
   0.2876890000000000    0.7950530000000001    0.2598041666666667 O
   0.2876890000000000    0.7950530000000001    0.4264708333333333 O
   0.3119490000000000    0.7310080000000001    0.0176953333333334 O
   0.3119490000000000    0.7310080000000001    0.1843620000000001 O
   0.3119490000000000    0.7310080000000001    0.3510286666666668 O
   0.6368840000000000    0.4425230000000001    0.0194970000000001 O
   0.6368840000000000    0.4425230000000001    0.1861636666666668 O
   0.6368840000000000    0.4425230000000001    0.3528303333333334 O
   0.4617560000000002    0.0854470000000001    0.4455471666666668 O
   0.4617560000000002    0.0854470000000001    0.1122138333333334 O
   0.4617560000000002    0.0854470000000001    0.2788805000000001 O
   0.0542060000000000    0.0632090000000008    0.0873060000000000 O
   0.0542060000000000    0.0632090000000008    0.2539726666666667 O
   0.0542060000000000    0.0632090000000008    0.4206393333333333 O
   0.3509839999999990    0.8173380000000001    0.4627524999999999 O
   0.3509839999999990    0.8173380000000001    0.1294191666666666 O
   0.3509839999999990    0.8173380000000001    0.2960858333333333 O
   0.4720379999999992    0.9702880000000003    0.0441618333333333 O
   0.4720379999999992    0.9702880000000003    0.2108284999999999 O
   0.4720379999999992    0.9702880000000003    0.3774951666666665 O
   0.7638309999999990    0.7918760000000000    0.0828246666666668 O
   0.7638309999999990    0.7918760000000000    0.2494913333333335 O
   0.7638309999999990    0.7918760000000000    0.4161580000000001 O
   0.5759319999999999    0.1332180000000011    0.4832299999999999 O
   0.5759319999999999    0.1332180000000011    0.1498966666666666 O
   0.5759319999999999    0.1332180000000011    0.3165633333333331 O
   0.4226640000000000    0.2914620000000000    0.0555531666666666 O
   0.4226640000000000    0.2914620000000000    0.2222198333333333 O
   0.4226640000000000    0.2914620000000000    0.3888864999999999 O
   0.1914030000000000    0.9599750000000002    0.4672358333333334 O
   0.1914030000000000    0.9599750000000002    0.1339025000000001 O
   0.1914030000000000    0.9599750000000002    0.3005691666666667 O
   0.1594519999999990    0.5195680000000009    0.4875219999999998 O
   0.1594519999999990    0.5195680000000009    0.1541886666666665 O
   0.1594519999999990    0.5195680000000009    0.3208553333333331 O
   0.1384619999999999    0.1140920000000008    0.4726394999999998 O
   0.1384619999999999    0.1140920000000008    0.1393061666666665 O
   0.1384619999999999    0.1140920000000008    0.3059728333333331 O
   0.3836949999999998    0.2549929999999998    0.4525513333333333 O
   0.3836949999999998    0.2549929999999998    0.1192180000000000 O
   0.3836949999999998    0.2549929999999998    0.2858846666666666 O
   0.2678300000000000    0.5161840000000010    0.4484794999999999 O
   0.2678300000000000    0.5161840000000010    0.1151461666666665 O
   0.2678300000000000    0.5161840000000010    0.2818128333333332 O
   0.7179100000000000    0.0698520000000002    0.4645390000000001 O
   0.7179100000000000    0.0698520000000002    0.1312056666666667 O
   0.7179100000000000    0.0698520000000002    0.2978723333333334 O
   0.3878410000000001    0.4028710000000002    0.4987873333333334 O
   0.3878410000000001    0.4028710000000002    0.1654540000000001 O
   0.3878410000000001    0.4028710000000002    0.3321206666666668 O
   0.3703140000000000    0.9993610000000012    0.4953384999999998 O
   0.3703140000000000    0.9993610000000012    0.1620051666666664 O
   0.3703140000000000    0.9993610000000012    0.3286718333333332 O
   0.1724170000000000    0.2708770000000001    0.0339556666666666 O
   0.1724170000000000    0.2708770000000001    0.2006223333333332 O
   0.1724170000000000    0.2708770000000001    0.3672889999999999 O
   0.0296230000000000    0.0548199999999999    0.0365855000000001 O
   0.0296230000000000    0.0548199999999999    0.2032521666666667 O
   0.0296230000000000    0.0548199999999999    0.3699188333333333 O
   0.0428710000000000    0.8070050000000001    0.4504910000000001 O
   0.0428710000000000    0.8070050000000001    0.1171576666666667 O
   0.0428710000000000    0.8070050000000001    0.2838243333333334 O
   0.7001120000000000    0.1780890000000001    0.0782474999999999 O
   0.7001120000000000    0.1780890000000001    0.2449141666666665 O
   0.7001120000000000    0.1780890000000001    0.4115808333333333 O
   0.5427529999999994    0.6028380000000010    0.0339026666666665 O
   0.5427529999999994    0.6028380000000010    0.2005693333333332 O
   0.5427529999999994    0.6028380000000010    0.3672359999999999 O
   0.6677839999999992    0.7085150000000000    0.0596056666666668 O
   0.6677839999999992    0.7085150000000000    0.2262723333333334 O
   0.6677839999999992    0.7085150000000000    0.3929390000000000 O
   0.5019669999999992    0.2638999999999998    0.4926825000000001 O
   0.5019669999999992    0.2638999999999998    0.1593491666666668 O
   0.5019669999999992    0.2638999999999998    0.3260158333333334 O
   0.5481920000000000    0.8703910000000000    0.0215648333333334 O
   0.5481920000000000    0.8703910000000000    0.1882315000000001 O
   0.5481920000000000    0.8703910000000000    0.3548981666666668 O
   0.5340460000000001    0.6660159999999999    0.4789970000000000 O
   0.5340460000000001    0.6660159999999999    0.1456636666666666 O
   0.5340460000000001    0.6660159999999999    0.3123303333333333 O
   0.3606370000000000    0.5156370000000000    0.0249658333333334 O
   0.3606370000000000    0.5156370000000000    0.1916325000000001 O
   0.3606370000000000    0.5156370000000000    0.3582991666666667 O
   0.7773439999999990    0.3032550000000002    0.4875151666666667 O
   0.7773439999999990    0.3032550000000002    0.1541818333333334 O
   0.7773439999999990    0.3032550000000002    0.3208485000000001 O
   0.2641879999999999    0.1172580000000010    0.0104229999999999 O
   0.2641879999999999    0.1172580000000010    0.1770896666666666 O
   0.2641879999999999    0.1172580000000010    0.3437563333333332 O
   0.8271069999999990    0.3857580000000001    0.0539826666666667 O
   0.8271069999999990    0.3857580000000001    0.2206493333333334 O
   0.8271069999999990    0.3857580000000001    0.3873160000000002 O
   0.6517999999999999    0.5210360000000001    0.4669410000000001 O
   0.6517999999999999    0.5210360000000001    0.1336076666666667 O
   0.6517999999999999    0.5210360000000001    0.3002743333333335 O
   0.5605660000000001    0.8361070000000010    0.4884919999999997 O
   0.5605660000000001    0.8361070000000010    0.1551586666666664 O
   0.5605660000000001    0.8361070000000010    0.3218253333333331 O
