Ti90 O180
1.0
  10.7847349425586163    0.0000000000000000    0.0060328200944446
  -1.2247047225377732   10.4583487854001529    9.3482210382165096
   0.0000000000000000    0.0000000000000000   62.9170570674836966
Ti O
90 180
direct
   0.3479379999999991    0.8204740000000001    0.4646691666666667 Ti
   0.3479379999999991    0.8204740000000001    0.1313358333333334 Ti
   0.3479379999999991    0.8204740000000001    0.2980025000000001 Ti
   0.1008690000000000    0.1441720000000008    0.4343348333333332 Ti
   0.1008690000000000    0.1441720000000008    0.1010014999999999 Ti
   0.1008690000000000    0.1441720000000008    0.2676681666666665 Ti
   0.8065249999999994    0.4774350000000001    0.3981516666666667 Ti
   0.8065249999999994    0.4774350000000001    0.0648183333333334 Ti
   0.8065249999999994    0.4774350000000001    0.2314850000000000 Ti
   0.7909490000000001    0.2465539999999999    0.0293435000000001 Ti
   0.7909490000000001    0.2465539999999999    0.1960101666666668 Ti
   0.7909490000000001    0.2465539999999999    0.3626768333333334 Ti
   0.4398120000000000    0.7044890000000010    0.4320413333333332 Ti
   0.4398120000000000    0.7044890000000010    0.0987079999999998 Ti
   0.4398120000000000    0.7044890000000010    0.2653746666666665 Ti
   0.1631409999999990    0.5778510000000001    0.4750478333333334 Ti
   0.1631409999999990    0.5778510000000001    0.1417145000000000 Ti
   0.1631409999999990    0.5778510000000001    0.3083811666666667 Ti
   0.5602509999999991    0.0046750000000008    0.4136859999999999 Ti
   0.5602509999999991    0.0046750000000008    0.0803526666666666 Ti
   0.5602509999999991    0.0046750000000008    0.2470193333333333 Ti
   0.5211030000000000    0.4422479999999999    0.4770093333333334 Ti
   0.5211030000000000    0.4422479999999999    0.1436760000000001 Ti
   0.5211030000000000    0.4422479999999999    0.3103426666666668 Ti
   0.5445340000000000    0.3619320000000000    0.4373038333333332 Ti
   0.5445340000000000    0.3619320000000000    0.1039704999999998 Ti
   0.5445340000000000    0.3619320000000000    0.2706371666666665 Ti
   0.3685410000000002    0.5153020000000010    0.0271903333333330 Ti
   0.3685410000000002    0.5153020000000010    0.1938569999999997 Ti
   0.3685410000000002    0.5153020000000010    0.3605236666666665 Ti
   0.0395639999999990    0.6267690000000000    0.4042491666666667 Ti
   0.0395639999999990    0.6267690000000000    0.0709158333333333 Ti
   0.0395639999999990    0.6267690000000000    0.2375825000000000 Ti
   0.4267149999999991    0.1029350000000001    0.4434628333333334 Ti
   0.4267149999999991    0.1029350000000001    0.1101294999999999 Ti
   0.4267149999999991    0.1029350000000001    0.2767961666666667 Ti
   0.4301250000000000    0.9143660000000000    0.0183586666666666 Ti
   0.4301250000000000    0.9143660000000000    0.1850253333333333 Ti
   0.4301250000000000    0.9143660000000000    0.3516919999999999 Ti
   0.8723019999999996    0.9280300000000002    0.4885500000000000 Ti
   0.8723019999999996    0.9280300000000002    0.1552166666666667 Ti
   0.8723019999999996    0.9280300000000002    0.3218833333333332 Ti
   0.1865880000000000    0.8336970000000010    0.4027971666666664 Ti
   0.1865880000000000    0.8336970000000010    0.0694638333333331 Ti
   0.1865880000000000    0.8336970000000010    0.2361304999999997 Ti
   0.6539610000000002    0.6951250000000000    0.3898499999999999 Ti
   0.6539610000000002    0.6951250000000000    0.0565166666666666 Ti
   0.6539610000000002    0.6951250000000000    0.2231833333333333 Ti
   0.3001759999999999    0.1249779999999997    0.3924895000000001 Ti
   0.3001759999999999    0.1249779999999997    0.0591561666666668 Ti
   0.3001759999999999    0.1249779999999997    0.2258228333333334 Ti
   0.2299519999999999    0.7013280000000000    0.0215736666666667 Ti
   0.2299519999999999    0.7013280000000000    0.1882403333333335 Ti
   0.2299519999999999    0.7013280000000000    0.3549070000000001 Ti
   0.2223479999999999    0.3955090000000000    0.4272371666666668 Ti
   0.2223479999999999    0.3955090000000000    0.0939038333333334 Ti
   0.2223479999999999    0.3955090000000000    0.2605705000000000 Ti
   0.5601389999999993    0.3160910000000000    0.3800666666666667 Ti
   0.5601389999999993    0.3160910000000000    0.0467333333333334 Ti
   0.5601389999999993    0.3160910000000000    0.2134000000000000 Ti
   0.0458439999999990    0.0765540000000000    0.3857316666666667 Ti
   0.0458439999999990    0.0765540000000000    0.0523983333333334 Ti
   0.0458439999999990    0.0765540000000000    0.2190650000000001 Ti
   0.7670669999999988    0.1698310000000008    0.4232976666666666 Ti
   0.7670669999999988    0.1698310000000008    0.0899643333333333 Ti
   0.7670669999999988    0.1698310000000008    0.2566309999999999 Ti
   0.0141669999999990    0.1413960000000010    0.4869973333333332 Ti
   0.0141669999999990    0.1413960000000010    0.1536639999999999 Ti
   0.0141669999999990    0.1413960000000010    0.3203306666666665 Ti
   0.9002000000000000    0.6815009999999999    0.4894630000000001 Ti
   0.9002000000000000    0.6815009999999999    0.1561296666666668 Ti
   0.9002000000000000    0.6815009999999999    0.3227963333333335 Ti
   0.9040300000000002    0.8948880000000002    0.3813470000000000 Ti
   0.9040300000000002    0.8948880000000002    0.0480136666666666 Ti
   0.9040300000000002    0.8948880000000002    0.2146803333333334 Ti
   0.2487680000000000    0.3399710000000001    0.4852081666666667 Ti
   0.2487680000000000    0.3399710000000001    0.1518748333333333 Ti
   0.2487680000000000    0.3399710000000001    0.3185415000000000 Ti
   0.6409000000000002    0.7353340000000003    0.4621518333333334 Ti
   0.6409000000000002    0.7353340000000003    0.1288184999999999 Ti
   0.6409000000000002    0.7353340000000003    0.2954851666666667 Ti
   0.6138279999999990    0.8367120000000000    0.4924628333333333 Ti
   0.6138279999999990    0.8367120000000000    0.1591295000000001 Ti
   0.6138279999999990    0.8367120000000000    0.3257961666666667 Ti
   0.5144870000000001    0.1248010000000002    0.0115065000000000 Ti
   0.5144870000000001    0.1248010000000002    0.1781731666666667 Ti
   0.5144870000000001    0.1248010000000002    0.3448398333333333 Ti
   0.7612200000000001    0.3121970000000009    0.4769189999999998 Ti
   0.7612200000000001    0.3121970000000009    0.1435856666666664 Ti
   0.7612200000000001    0.3121970000000009    0.3102523333333331 Ti
   0.8739560000000002    0.9910120000000001    0.0095981666666667 O
   0.8739560000000002    0.9910120000000001    0.1762648333333334 O
   0.8739560000000002    0.9910120000000001    0.3429315000000000 O
   0.8036150000000000    0.7133380000000001    0.4611894999999999 O
   0.8036150000000000    0.7133380000000001    0.1278561666666665 O
   0.8036150000000000    0.7133380000000001    0.2945228333333330 O
   0.9485159999999990    0.2054380000000000    0.0362338333333334 O
   0.9485159999999990    0.2054380000000000    0.2029004999999999 O
   0.9485159999999990    0.2054380000000000    0.3695671666666668 O
   0.2662120000000000    0.5014220000000009    0.0071331666666666 O
   0.2662120000000000    0.5014220000000009    0.1737998333333333 O
   0.2662120000000000    0.5014220000000009    0.3404664999999999 O
   0.8931300000000003    0.5236930000000000    0.4161793333333334 O
   0.8931300000000003    0.5236930000000000    0.0828460000000000 O
   0.8931300000000003    0.5236930000000000    0.2495126666666667 O
   0.3974479999999990    0.6925810000000001    0.0036200000000000 O
   0.3974479999999990    0.6925810000000001    0.1702866666666668 O
   0.3974479999999990    0.6925810000000001    0.3369533333333334 O
   0.2208709999999990    0.2082220000000000    0.0249783333333334 O
   0.2208709999999990    0.2082220000000000    0.1916450000000001 O
   0.2208709999999990    0.2082220000000000    0.3583116666666668 O
   0.5392760000000002    0.7732650000000000    0.0279063333333333 O
   0.5392760000000002    0.7732650000000000    0.1945729999999999 O
   0.5392760000000002    0.7732650000000000    0.3612396666666666 O
   0.5830440000000002    0.3545419999999999    0.0132933333333334 O
   0.5830440000000002    0.3545419999999999    0.1799600000000001 O
   0.5830440000000002    0.3545419999999999    0.3466266666666666 O
   0.1244670000000000    0.4280370000000000    0.4832181666666666 O
   0.1244670000000000    0.4280370000000000    0.1498848333333331 O
   0.1244670000000000    0.4280370000000000    0.3165514999999998 O
   0.0680549999999990    0.6614070000000000    0.3715671666666667 O
   0.0680549999999990    0.6614070000000000    0.0382338333333333 O
   0.0680549999999990    0.6614070000000000    0.2049004999999999 O
   0.2100409999999990    0.8127910000000002    0.4826018333333333 O
   0.2100409999999990    0.8127910000000002    0.1492685000000000 O
   0.2100409999999990    0.8127910000000002    0.3159351666666667 O
   0.6015980000000001    0.2259720000000008    0.4728294999999999 O
   0.6015980000000001    0.2259720000000008    0.1394961666666666 O
   0.6015980000000001    0.2259720000000008    0.3061628333333332 O
   0.9369569999999992    0.8329630000000001    0.4812221666666666 O
   0.9369569999999992    0.8329630000000001    0.1478888333333332 O
   0.9369569999999992    0.8329630000000001    0.3145554999999998 O
   0.7478680000000001    0.3017190000000008    0.3822916666666666 O
   0.7478680000000001    0.3017190000000008    0.0489583333333333 O
   0.7478680000000001    0.3017190000000008    0.2156250000000000 O
   0.1286800000000000    0.6762770000000001    0.4351521666666667 O
   0.1286800000000000    0.6762770000000001    0.1018188333333334 O
   0.1286800000000000    0.6762770000000001    0.2684855000000000 O
   0.3732089999999991    0.0628869999999998    0.0043031666666666 O
   0.3732089999999991    0.0628869999999998    0.1709698333333333 O
   0.3732089999999991    0.0628869999999998    0.3376365000000000 O
   0.9236479999999990    0.9405430000000010    0.4030241666666666 O
   0.9236479999999990    0.9405430000000010    0.0696908333333333 O
   0.9236479999999990    0.9405430000000010    0.2363574999999999 O
   0.9223730000000000    0.1389929999999998    0.4254683333333334 O
   0.9223730000000000    0.1389929999999998    0.0921350000000001 O
   0.9223730000000000    0.1389929999999998    0.2588016666666668 O
   0.9020089999999999    0.2535110000000002    0.4727004999999999 O
   0.9020089999999999    0.2535110000000002    0.1393671666666665 O
   0.9020089999999999    0.2535110000000002    0.3060338333333331 O
   0.5288700000000001    0.4666590000000002    0.0354019999999999 O
   0.5288700000000001    0.4666590000000002    0.2020686666666666 O
   0.5288700000000001    0.4666590000000002    0.3687353333333332 O
   0.0372740000000000    0.6255510000000000    0.4848083333333335 O
   0.0372740000000000    0.6255510000000000    0.1514750000000001 O
   0.0372740000000000    0.6255510000000000    0.3181416666666667 O
   0.7350010000000000    0.9933010000000002    0.4662263333333334 O
   0.7350010000000000    0.9933010000000002    0.1328930000000000 O
   0.7350010000000000    0.9933010000000002    0.2995596666666666 O
   0.7777479999999998    0.7652890000000001    0.3981244999999999 O
   0.7777479999999998    0.7652890000000001    0.0647911666666666 O
   0.7777479999999998    0.7652890000000001    0.2314578333333331 O
   0.1128660000000000    0.3028190000000008    0.4218893333333333 O
   0.1128660000000000    0.3028190000000008    0.0885560000000000 O
   0.1128660000000000    0.3028190000000008    0.2552226666666667 O
   0.5646110000000001    0.9682820000000010    0.0280074999999999 O
   0.5646110000000001    0.9682820000000010    0.1946741666666665 O
   0.5646110000000001    0.9682820000000010    0.3613408333333331 O
   0.8562139999999991    0.5527519999999999    0.0290330000000000 O
   0.8562139999999991    0.5527519999999999    0.1956996666666667 O
   0.8562139999999991    0.5527519999999999    0.3623663333333335 O
   0.2876890000000000    0.7950530000000001    0.0292286666666666 O
   0.2876890000000000    0.7950530000000001    0.1958953333333333 O
   0.2876890000000000    0.7950530000000001    0.3625619999999999 O
   0.3119490000000000    0.7310080000000001    0.4537865000000000 O
   0.3119490000000000    0.7310080000000001    0.1204531666666668 O
   0.3119490000000000    0.7310080000000001    0.2871198333333334 O
   0.6368840000000000    0.4425230000000001    0.4555881666666667 O
   0.6368840000000000    0.4425230000000001    0.1222548333333334 O
   0.6368840000000000    0.4425230000000001    0.2889215000000001 O
   0.4617560000000002    0.0854470000000001    0.3816383333333334 O
   0.4617560000000002    0.0854470000000001    0.0483050000000001 O
   0.4617560000000002    0.0854470000000001    0.2149716666666667 O
   0.0542060000000000    0.0632090000000008    0.0233971666666666 O
   0.0542060000000000    0.0632090000000008    0.1900638333333333 O
   0.0542060000000000    0.0632090000000008    0.3567305000000000 O
   0.3509839999999990    0.8173380000000001    0.3988436666666666 O
   0.3509839999999990    0.8173380000000001    0.0655103333333333 O
   0.3509839999999990    0.8173380000000001    0.2321769999999999 O
   0.4720379999999992    0.9702880000000003    0.4802529999999999 O
   0.4720379999999992    0.9702880000000003    0.1469196666666666 O
   0.4720379999999992    0.9702880000000003    0.3135863333333332 O
   0.7638309999999990    0.7918760000000000    0.0189158333333334 O
   0.7638309999999990    0.7918760000000000    0.1855825000000001 O
   0.7638309999999990    0.7918760000000000    0.3522491666666667 O
   0.5759319999999999    0.1332180000000011    0.4193211666666665 O
   0.5759319999999999    0.1332180000000011    0.0859878333333332 O
   0.5759319999999999    0.1332180000000011    0.2526544999999998 O
   0.4226640000000000    0.2914620000000000    0.4916443333333332 O
   0.4226640000000000    0.2914620000000000    0.1583109999999999 O
   0.4226640000000000    0.2914620000000000    0.3249776666666666 O
   0.1914030000000000    0.9599750000000002    0.4033270000000000 O
   0.1914030000000000    0.9599750000000002    0.0699936666666667 O
   0.1914030000000000    0.9599750000000002    0.2366603333333334 O
   0.1594519999999990    0.5195680000000009    0.4236131666666664 O
   0.1594519999999990    0.5195680000000009    0.0902798333333331 O
   0.1594519999999990    0.5195680000000009    0.2569464999999997 O
   0.1384619999999999    0.1140920000000008    0.4087306666666665 O
   0.1384619999999999    0.1140920000000008    0.0753973333333331 O
   0.1384619999999999    0.1140920000000008    0.2420639999999998 O
   0.3836949999999998    0.2549929999999998    0.3886424999999999 O
   0.3836949999999998    0.2549929999999998    0.0553091666666666 O
   0.3836949999999998    0.2549929999999998    0.2219758333333333 O
   0.2678300000000000    0.5161840000000010    0.3845706666666666 O
   0.2678300000000000    0.5161840000000010    0.0512373333333332 O
   0.2678300000000000    0.5161840000000010    0.2179039999999999 O
   0.7179100000000000    0.0698520000000002    0.4006301666666667 O
   0.7179100000000000    0.0698520000000002    0.0672968333333334 O
   0.7179100000000000    0.0698520000000002    0.2339635000000000 O
   0.3878410000000001    0.4028710000000002    0.4348785000000001 O
   0.3878410000000001    0.4028710000000002    0.1015451666666667 O
   0.3878410000000001    0.4028710000000002    0.2682118333333334 O
   0.3703140000000000    0.9993610000000012    0.4314296666666664 O
   0.3703140000000000    0.9993610000000012    0.0980963333333330 O
   0.3703140000000000    0.9993610000000012    0.2647629999999999 O
   0.1724170000000000    0.2708770000000001    0.4700468333333332 O
   0.1724170000000000    0.2708770000000001    0.1367134999999999 O
   0.1724170000000000    0.2708770000000001    0.3033801666666666 O
   0.0296230000000000    0.0548199999999999    0.4726766666666667 O
   0.0296230000000000    0.0548199999999999    0.1393433333333333 O
   0.0296230000000000    0.0548199999999999    0.3060099999999999 O
   0.0428710000000000    0.8070050000000001    0.3865821666666668 O
   0.0428710000000000    0.8070050000000001    0.0532488333333334 O
   0.0428710000000000    0.8070050000000001    0.2199155000000000 O
   0.7001120000000000    0.1780890000000001    0.0143386666666666 O
   0.7001120000000000    0.1780890000000001    0.1810053333333332 O
   0.7001120000000000    0.1780890000000001    0.3476719999999999 O
   0.5427529999999994    0.6028380000000010    0.4699938333333332 O
   0.5427529999999994    0.6028380000000010    0.1366604999999999 O
   0.5427529999999994    0.6028380000000010    0.3033271666666665 O
   0.6677839999999992    0.7085150000000000    0.4956968333333334 O
   0.6677839999999992    0.7085150000000000    0.1623635000000000 O
   0.6677839999999992    0.7085150000000000    0.3290301666666667 O
   0.5019669999999992    0.2638999999999998    0.4287736666666668 O
   0.5019669999999992    0.2638999999999998    0.0954403333333334 O
   0.5019669999999992    0.2638999999999998    0.2621070000000000 O
   0.5481920000000000    0.8703910000000000    0.4576560000000001 O
   0.5481920000000000    0.8703910000000000    0.1243226666666667 O
   0.5481920000000000    0.8703910000000000    0.2909893333333334 O
   0.5340460000000001    0.6660159999999999    0.4150881666666666 O
   0.5340460000000001    0.6660159999999999    0.0817548333333332 O
   0.5340460000000001    0.6660159999999999    0.2484215000000000 O
   0.3606370000000000    0.5156370000000000    0.4610570000000001 O
   0.3606370000000000    0.5156370000000000    0.1277236666666668 O
   0.3606370000000000    0.5156370000000000    0.2943903333333334 O
   0.7773439999999990    0.3032550000000002    0.4236063333333333 O
   0.7773439999999990    0.3032550000000002    0.0902730000000000 O
   0.7773439999999990    0.3032550000000002    0.2569396666666667 O
   0.2641879999999999    0.1172580000000010    0.4465141666666665 O
   0.2641879999999999    0.1172580000000010    0.1131808333333332 O
   0.2641879999999999    0.1172580000000010    0.2798474999999998 O
   0.8271069999999990    0.3857580000000001    0.4900738333333334 O
   0.8271069999999990    0.3857580000000001    0.1567405000000000 O
   0.8271069999999990    0.3857580000000001    0.3234071666666668 O
   0.6517999999999999    0.5210360000000001    0.4030321666666667 O
   0.6517999999999999    0.5210360000000001    0.0696988333333333 O
   0.6517999999999999    0.5210360000000001    0.2363655000000001 O
   0.5605660000000001    0.8361070000000010    0.4245831666666664 O
   0.5605660000000001    0.8361070000000010    0.0912498333333331 O
   0.5605660000000001    0.8361070000000010    0.2579164999999998 O
