Ti90 O180
1.0
  10.7847349425586163    0.0000000000000000    0.0060328200944446
  -1.2247047225377732   10.4583487854001529    9.3482210382165096
   0.0000000000000000    0.0000000000000000   62.9170570674836966
Ti O
90 180
direct
   0.3479379999999991    0.8204740000000001    0.4717838333333333 Ti
   0.3479379999999991    0.8204740000000001    0.1384505000000000 Ti
   0.3479379999999991    0.8204740000000001    0.3051171666666667 Ti
   0.1008690000000000    0.1441720000000008    0.4414494999999999 Ti
   0.1008690000000000    0.1441720000000008    0.1081161666666665 Ti
   0.1008690000000000    0.1441720000000008    0.2747828333333331 Ti
   0.8065249999999994    0.4774350000000001    0.4052663333333333 Ti
   0.8065249999999994    0.4774350000000001    0.0719330000000000 Ti
   0.8065249999999994    0.4774350000000001    0.2385996666666666 Ti
   0.7909490000000001    0.2465539999999999    0.0364581666666667 Ti
   0.7909490000000001    0.2465539999999999    0.2031248333333334 Ti
   0.7909490000000001    0.2465539999999999    0.3697915000000001 Ti
   0.4398120000000000    0.7044890000000010    0.4391559999999998 Ti
   0.4398120000000000    0.7044890000000010    0.1058226666666664 Ti
   0.4398120000000000    0.7044890000000010    0.2724893333333331 Ti
   0.1631409999999990    0.5778510000000001    0.4821625000000000 Ti
   0.1631409999999990    0.5778510000000001    0.1488291666666666 Ti
   0.1631409999999990    0.5778510000000001    0.3154958333333333 Ti
   0.5602509999999991    0.0046750000000008    0.4208006666666666 Ti
   0.5602509999999991    0.0046750000000008    0.0874673333333332 Ti
   0.5602509999999991    0.0046750000000008    0.2541339999999999 Ti
   0.5211030000000000    0.4422479999999999    0.4841240000000000 Ti
   0.5211030000000000    0.4422479999999999    0.1507906666666667 Ti
   0.5211030000000000    0.4422479999999999    0.3174573333333334 Ti
   0.5445340000000000    0.3619320000000000    0.4444184999999999 Ti
   0.5445340000000000    0.3619320000000000    0.1110851666666664 Ti
   0.5445340000000000    0.3619320000000000    0.2777518333333331 Ti
   0.3685410000000002    0.5153020000000010    0.0343049999999997 Ti
   0.3685410000000002    0.5153020000000010    0.2009716666666663 Ti
   0.3685410000000002    0.5153020000000010    0.3676383333333331 Ti
   0.0395639999999990    0.6267690000000000    0.4113638333333333 Ti
   0.0395639999999990    0.6267690000000000    0.0780304999999999 Ti
   0.0395639999999990    0.6267690000000000    0.2446971666666666 Ti
   0.4267149999999991    0.1029350000000001    0.4505775000000000 Ti
   0.4267149999999991    0.1029350000000001    0.1172441666666666 Ti
   0.4267149999999991    0.1029350000000001    0.2839108333333333 Ti
   0.4301250000000000    0.9143660000000000    0.0254733333333332 Ti
   0.4301250000000000    0.9143660000000000    0.1921399999999999 Ti
   0.4301250000000000    0.9143660000000000    0.3588066666666665 Ti
   0.8723019999999996    0.9280300000000002    0.4956646666666666 Ti
   0.8723019999999996    0.9280300000000002    0.1623313333333333 Ti
   0.8723019999999996    0.9280300000000002    0.3289979999999998 Ti
   0.1865880000000000    0.8336970000000010    0.4099118333333330 Ti
   0.1865880000000000    0.8336970000000010    0.0765784999999997 Ti
   0.1865880000000000    0.8336970000000010    0.2432451666666663 Ti
   0.6539610000000002    0.6951250000000000    0.3969646666666665 Ti
   0.6539610000000002    0.6951250000000000    0.0636313333333332 Ti
   0.6539610000000002    0.6951250000000000    0.2302979999999999 Ti
   0.3001759999999999    0.1249779999999997    0.3996041666666668 Ti
   0.3001759999999999    0.1249779999999997    0.0662708333333334 Ti
   0.3001759999999999    0.1249779999999997    0.2329375000000000 Ti
   0.2299519999999999    0.7013280000000000    0.0286883333333334 Ti
   0.2299519999999999    0.7013280000000000    0.1953550000000001 Ti
   0.2299519999999999    0.7013280000000000    0.3620216666666667 Ti
   0.2223479999999999    0.3955090000000000    0.4343518333333334 Ti
   0.2223479999999999    0.3955090000000000    0.1010185000000000 Ti
   0.2223479999999999    0.3955090000000000    0.2676851666666666 Ti
   0.5601389999999993    0.3160910000000000    0.3871813333333333 Ti
   0.5601389999999993    0.3160910000000000    0.0538480000000000 Ti
   0.5601389999999993    0.3160910000000000    0.2205146666666666 Ti
   0.0458439999999990    0.0765540000000000    0.3928463333333334 Ti
   0.0458439999999990    0.0765540000000000    0.0595130000000000 Ti
   0.0458439999999990    0.0765540000000000    0.2261796666666667 Ti
   0.7670669999999988    0.1698310000000008    0.4304123333333332 Ti
   0.7670669999999988    0.1698310000000008    0.0970789999999999 Ti
   0.7670669999999988    0.1698310000000008    0.2637456666666665 Ti
   0.0141669999999990    0.1413960000000010    0.4941119999999998 Ti
   0.0141669999999990    0.1413960000000010    0.1607786666666665 Ti
   0.0141669999999990    0.1413960000000010    0.3274453333333331 Ti
   0.9002000000000000    0.6815009999999999    0.4965776666666667 Ti
   0.9002000000000000    0.6815009999999999    0.1632443333333334 Ti
   0.9002000000000000    0.6815009999999999    0.3299110000000001 Ti
   0.9040300000000002    0.8948880000000002    0.3884616666666666 Ti
   0.9040300000000002    0.8948880000000002    0.0551283333333333 Ti
   0.9040300000000002    0.8948880000000002    0.2217950000000000 Ti
   0.2487680000000000    0.3399710000000001    0.4923228333333333 Ti
   0.2487680000000000    0.3399710000000001    0.1589894999999999 Ti
   0.2487680000000000    0.3399710000000001    0.3256561666666666 Ti
   0.6409000000000002    0.7353340000000003    0.4692665000000000 Ti
   0.6409000000000002    0.7353340000000003    0.1359331666666665 Ti
   0.6409000000000002    0.7353340000000003    0.3025998333333333 Ti
   0.6138279999999990    0.8367120000000000    0.4995775000000000 Ti
   0.6138279999999990    0.8367120000000000    0.1662441666666667 Ti
   0.6138279999999990    0.8367120000000000    0.3329108333333333 Ti
   0.5144870000000001    0.1248010000000002    0.0186211666666666 Ti
   0.5144870000000001    0.1248010000000002    0.1852878333333333 Ti
   0.5144870000000001    0.1248010000000002    0.3519544999999999 Ti
   0.7612200000000001    0.3121970000000009    0.4840336666666664 Ti
   0.7612200000000001    0.3121970000000009    0.1507003333333330 Ti
   0.7612200000000001    0.3121970000000009    0.3173669999999997 Ti
   0.8739560000000002    0.9910120000000001    0.0167128333333334 O
   0.8739560000000002    0.9910120000000001    0.1833795000000000 O
   0.8739560000000002    0.9910120000000001    0.3500461666666666 O
   0.8036150000000000    0.7133380000000001    0.4683041666666665 O
   0.8036150000000000    0.7133380000000001    0.1349708333333332 O
   0.8036150000000000    0.7133380000000001    0.3016374999999996 O
   0.9485159999999990    0.2054380000000000    0.0433485000000000 O
   0.9485159999999990    0.2054380000000000    0.2100151666666665 O
   0.9485159999999990    0.2054380000000000    0.3766818333333334 O
   0.2662120000000000    0.5014220000000009    0.0142478333333332 O
   0.2662120000000000    0.5014220000000009    0.1809144999999999 O
   0.2662120000000000    0.5014220000000009    0.3475811666666665 O
   0.8931300000000003    0.5236930000000000    0.4232940000000001 O
   0.8931300000000003    0.5236930000000000    0.0899606666666666 O
   0.8931300000000003    0.5236930000000000    0.2566273333333333 O
   0.3974479999999990    0.6925810000000001    0.0107346666666666 O
   0.3974479999999990    0.6925810000000001    0.1774013333333334 O
   0.3974479999999990    0.6925810000000001    0.3440680000000000 O
   0.2208709999999990    0.2082220000000000    0.0320930000000001 O
   0.2208709999999990    0.2082220000000000    0.1987596666666667 O
   0.2208709999999990    0.2082220000000000    0.3654263333333334 O
   0.5392760000000002    0.7732650000000000    0.0350209999999999 O
   0.5392760000000002    0.7732650000000000    0.2016876666666665 O
   0.5392760000000002    0.7732650000000000    0.3683543333333332 O
   0.5830440000000002    0.3545419999999999    0.0204080000000000 O
   0.5830440000000002    0.3545419999999999    0.1870746666666667 O
   0.5830440000000002    0.3545419999999999    0.3537413333333332 O
   0.1244670000000000    0.4280370000000000    0.4903328333333332 O
   0.1244670000000000    0.4280370000000000    0.1569994999999997 O
   0.1244670000000000    0.4280370000000000    0.3236661666666664 O
   0.0680549999999990    0.6614070000000000    0.3786818333333333 O
   0.0680549999999990    0.6614070000000000    0.0453484999999999 O
   0.0680549999999990    0.6614070000000000    0.2120151666666665 O
   0.2100409999999990    0.8127910000000002    0.4897164999999999 O
   0.2100409999999990    0.8127910000000002    0.1563831666666666 O
   0.2100409999999990    0.8127910000000002    0.3230498333333333 O
   0.6015980000000001    0.2259720000000008    0.4799441666666665 O
   0.6015980000000001    0.2259720000000008    0.1466108333333332 O
   0.6015980000000001    0.2259720000000008    0.3132774999999998 O
   0.9369569999999992    0.8329630000000001    0.4883368333333332 O
   0.9369569999999992    0.8329630000000001    0.1550034999999998 O
   0.9369569999999992    0.8329630000000001    0.3216701666666664 O
   0.7478680000000001    0.3017190000000008    0.3894063333333332 O
   0.7478680000000001    0.3017190000000008    0.0560729999999999 O
   0.7478680000000001    0.3017190000000008    0.2227396666666666 O
   0.1286800000000000    0.6762770000000001    0.4422668333333333 O
   0.1286800000000000    0.6762770000000001    0.1089335000000000 O
   0.1286800000000000    0.6762770000000001    0.2756001666666666 O
   0.3732089999999991    0.0628869999999998    0.0114178333333332 O
   0.3732089999999991    0.0628869999999998    0.1780844999999999 O
   0.3732089999999991    0.0628869999999998    0.3447511666666666 O
   0.9236479999999990    0.9405430000000010    0.4101388333333332 O
   0.9236479999999990    0.9405430000000010    0.0768054999999999 O
   0.9236479999999990    0.9405430000000010    0.2434721666666665 O
   0.9223730000000000    0.1389929999999998    0.4325830000000001 O
   0.9223730000000000    0.1389929999999998    0.0992496666666667 O
   0.9223730000000000    0.1389929999999998    0.2659163333333334 O
   0.9020089999999999    0.2535110000000002    0.4798151666666665 O
   0.9020089999999999    0.2535110000000002    0.1464818333333331 O
   0.9020089999999999    0.2535110000000002    0.3131484999999997 O
   0.5288700000000001    0.4666590000000002    0.0425166666666665 O
   0.5288700000000001    0.4666590000000002    0.2091833333333332 O
   0.5288700000000001    0.4666590000000002    0.3758499999999998 O
   0.0372740000000000    0.6255510000000000    0.4919230000000001 O
   0.0372740000000000    0.6255510000000000    0.1585896666666667 O
   0.0372740000000000    0.6255510000000000    0.3252563333333333 O
   0.7350010000000000    0.9933010000000002    0.4733410000000000 O
   0.7350010000000000    0.9933010000000002    0.1400076666666666 O
   0.7350010000000000    0.9933010000000002    0.3066743333333332 O
   0.7777479999999998    0.7652890000000001    0.4052391666666665 O
   0.7777479999999998    0.7652890000000001    0.0719058333333332 O
   0.7777479999999998    0.7652890000000001    0.2385724999999997 O
   0.1128660000000000    0.3028190000000008    0.4290039999999999 O
   0.1128660000000000    0.3028190000000008    0.0956706666666666 O
   0.1128660000000000    0.3028190000000008    0.2623373333333333 O
   0.5646110000000001    0.9682820000000010    0.0351221666666665 O
   0.5646110000000001    0.9682820000000010    0.2017888333333331 O
   0.5646110000000001    0.9682820000000010    0.3684554999999997 O
   0.8562139999999991    0.5527519999999999    0.0361476666666666 O
   0.8562139999999991    0.5527519999999999    0.2028143333333333 O
   0.8562139999999991    0.5527519999999999    0.3694810000000001 O
   0.2876890000000000    0.7950530000000001    0.0363433333333332 O
   0.2876890000000000    0.7950530000000001    0.2030099999999999 O
   0.2876890000000000    0.7950530000000001    0.3696766666666665 O
   0.3119490000000000    0.7310080000000001    0.4609011666666667 O
   0.3119490000000000    0.7310080000000001    0.1275678333333334 O
   0.3119490000000000    0.7310080000000001    0.2942345000000000 O
   0.6368840000000000    0.4425230000000001    0.4627028333333333 O
   0.6368840000000000    0.4425230000000001    0.1293695000000000 O
   0.6368840000000000    0.4425230000000001    0.2960361666666667 O
   0.4617560000000002    0.0854470000000001    0.3887530000000000 O
   0.4617560000000002    0.0854470000000001    0.0554196666666667 O
   0.4617560000000002    0.0854470000000001    0.2220863333333333 O
   0.0542060000000000    0.0632090000000008    0.0305118333333332 O
   0.0542060000000000    0.0632090000000008    0.1971784999999999 O
   0.0542060000000000    0.0632090000000008    0.3638451666666666 O
   0.3509839999999990    0.8173380000000001    0.4059583333333332 O
   0.3509839999999990    0.8173380000000001    0.0726249999999999 O
   0.3509839999999990    0.8173380000000001    0.2392916666666665 O
   0.4720379999999992    0.9702880000000003    0.4873676666666665 O
   0.4720379999999992    0.9702880000000003    0.1540343333333332 O
   0.4720379999999992    0.9702880000000003    0.3207009999999998 O
   0.7638309999999990    0.7918760000000000    0.0260305000000000 O
   0.7638309999999990    0.7918760000000000    0.1926971666666667 O
   0.7638309999999990    0.7918760000000000    0.3593638333333333 O
   0.5759319999999999    0.1332180000000011    0.4264358333333332 O
   0.5759319999999999    0.1332180000000011    0.0931024999999998 O
   0.5759319999999999    0.1332180000000011    0.2597691666666664 O
   0.4226640000000000    0.2914620000000000    0.4987589999999998 O
   0.4226640000000000    0.2914620000000000    0.1654256666666665 O
   0.4226640000000000    0.2914620000000000    0.3320923333333332 O
   0.1914030000000000    0.9599750000000002    0.4104416666666666 O
   0.1914030000000000    0.9599750000000002    0.0771083333333333 O
   0.1914030000000000    0.9599750000000002    0.2437750000000000 O
   0.1594519999999990    0.5195680000000009    0.4307278333333330 O
   0.1594519999999990    0.5195680000000009    0.0973944999999997 O
   0.1594519999999990    0.5195680000000009    0.2640611666666663 O
   0.1384619999999999    0.1140920000000008    0.4158453333333331 O
   0.1384619999999999    0.1140920000000008    0.0825119999999998 O
   0.1384619999999999    0.1140920000000008    0.2491786666666664 O
   0.3836949999999998    0.2549929999999998    0.3957571666666665 O
   0.3836949999999998    0.2549929999999998    0.0624238333333332 O
   0.3836949999999998    0.2549929999999998    0.2290904999999999 O
   0.2678300000000000    0.5161840000000010    0.3916853333333332 O
   0.2678300000000000    0.5161840000000010    0.0583519999999998 O
   0.2678300000000000    0.5161840000000010    0.2250186666666665 O
   0.7179100000000000    0.0698520000000002    0.4077448333333333 O
   0.7179100000000000    0.0698520000000002    0.0744115000000000 O
   0.7179100000000000    0.0698520000000002    0.2410781666666666 O
   0.3878410000000001    0.4028710000000002    0.4419931666666667 O
   0.3878410000000001    0.4028710000000002    0.1086598333333333 O
   0.3878410000000001    0.4028710000000002    0.2753265000000000 O
   0.3703140000000000    0.9993610000000012    0.4385443333333330 O
   0.3703140000000000    0.9993610000000012    0.1052109999999997 O
   0.3703140000000000    0.9993610000000012    0.2718776666666665 O
   0.1724170000000000    0.2708770000000001    0.4771614999999998 O
   0.1724170000000000    0.2708770000000001    0.1438281666666665 O
   0.1724170000000000    0.2708770000000001    0.3104948333333332 O
   0.0296230000000000    0.0548199999999999    0.4797913333333333 O
   0.0296230000000000    0.0548199999999999    0.1464579999999999 O
   0.0296230000000000    0.0548199999999999    0.3131246666666666 O
   0.0428710000000000    0.8070050000000001    0.3936968333333334 O
   0.0428710000000000    0.8070050000000001    0.0603635000000000 O
   0.0428710000000000    0.8070050000000001    0.2270301666666666 O
   0.7001120000000000    0.1780890000000001    0.0214533333333332 O
   0.7001120000000000    0.1780890000000001    0.1881199999999998 O
   0.7001120000000000    0.1780890000000001    0.3547866666666665 O
   0.5427529999999994    0.6028380000000010    0.4771084999999998 O
   0.5427529999999994    0.6028380000000010    0.1437751666666665 O
   0.5427529999999994    0.6028380000000010    0.3104418333333331 O
   0.6677839999999992    0.7085150000000000    0.0028115000000000 O
   0.6677839999999992    0.7085150000000000    0.1694781666666667 O
   0.6677839999999992    0.7085150000000000    0.3361448333333333 O
   0.5019669999999992    0.2638999999999998    0.4358883333333334 O
   0.5019669999999992    0.2638999999999998    0.1025550000000000 O
   0.5019669999999992    0.2638999999999998    0.2692216666666666 O
   0.5481920000000000    0.8703910000000000    0.4647706666666667 O
   0.5481920000000000    0.8703910000000000    0.1314373333333333 O
   0.5481920000000000    0.8703910000000000    0.2981040000000000 O
   0.5340460000000001    0.6660159999999999    0.4222028333333332 O
   0.5340460000000001    0.6660159999999999    0.0888694999999999 O
   0.5340460000000001    0.6660159999999999    0.2555361666666666 O
   0.3606370000000000    0.5156370000000000    0.4681716666666667 O
   0.3606370000000000    0.5156370000000000    0.1348383333333334 O
   0.3606370000000000    0.5156370000000000    0.3015050000000000 O
   0.7773439999999990    0.3032550000000002    0.4307210000000000 O
   0.7773439999999990    0.3032550000000002    0.0973876666666666 O
   0.7773439999999990    0.3032550000000002    0.2640543333333333 O
   0.2641879999999999    0.1172580000000010    0.4536288333333332 O
   0.2641879999999999    0.1172580000000010    0.1202954999999998 O
   0.2641879999999999    0.1172580000000010    0.2869621666666664 O
   0.8271069999999990    0.3857580000000001    0.4971885000000000 O
   0.8271069999999990    0.3857580000000001    0.1638551666666666 O
   0.8271069999999990    0.3857580000000001    0.3305218333333334 O
   0.6517999999999999    0.5210360000000001    0.4101468333333333 O
   0.6517999999999999    0.5210360000000001    0.0768134999999999 O
   0.6517999999999999    0.5210360000000001    0.2434801666666667 O
   0.5605660000000001    0.8361070000000010    0.4316978333333330 O
   0.5605660000000001    0.8361070000000010    0.0983644999999997 O
   0.5605660000000001    0.8361070000000010    0.2650311666666664 O
