Ti90 O180
1.0
  10.7847349425586163    0.0000000000000000    0.0060328200944446
  -1.2247047225377732   10.4583487854001529    9.3482210382165096
   0.0000000000000000    0.0000000000000000   62.9170570674836966
Ti O
90 180
direct
   0.3479379999999991    0.8204740000000001    0.4933339166666667 Ti
   0.3479379999999991    0.8204740000000001    0.1600005833333335 Ti
   0.3479379999999991    0.8204740000000001    0.3266672500000001 Ti
   0.1008690000000000    0.1441720000000008    0.4629995833333333 Ti
   0.1008690000000000    0.1441720000000008    0.1296662499999999 Ti
   0.1008690000000000    0.1441720000000008    0.2963329166666665 Ti
   0.8065249999999994    0.4774350000000001    0.4268164166666667 Ti
   0.8065249999999994    0.4774350000000001    0.0934830833333334 Ti
   0.8065249999999994    0.4774350000000001    0.2601497500000001 Ti
   0.7909490000000001    0.2465539999999999    0.0580082500000001 Ti
   0.7909490000000001    0.2465539999999999    0.2246749166666669 Ti
   0.7909490000000001    0.2465539999999999    0.3913415833333335 Ti
   0.4398120000000000    0.7044890000000010    0.4607060833333333 Ti
   0.4398120000000000    0.7044890000000010    0.1273727499999998 Ti
   0.4398120000000000    0.7044890000000010    0.2940394166666666 Ti
   0.1631409999999990    0.5778510000000001    0.0037125833333334 Ti
   0.1631409999999990    0.5778510000000001    0.1703792500000001 Ti
   0.1631409999999990    0.5778510000000001    0.3370459166666667 Ti
   0.5602509999999991    0.0046750000000008    0.4423507500000000 Ti
   0.5602509999999991    0.0046750000000008    0.1090174166666666 Ti
   0.5602509999999991    0.0046750000000008    0.2756840833333334 Ti
   0.5211030000000000    0.4422479999999999    0.0056740833333334 Ti
   0.5211030000000000    0.4422479999999999    0.1723407500000001 Ti
   0.5211030000000000    0.4422479999999999    0.3390074166666668 Ti
   0.5445340000000000    0.3619320000000000    0.4659685833333333 Ti
   0.5445340000000000    0.3619320000000000    0.1326352499999998 Ti
   0.5445340000000000    0.3619320000000000    0.2993019166666665 Ti
   0.3685410000000002    0.5153020000000010    0.0558550833333331 Ti
   0.3685410000000002    0.5153020000000010    0.2225217499999997 Ti
   0.3685410000000002    0.5153020000000010    0.3891884166666665 Ti
   0.0395639999999990    0.6267690000000000    0.4329139166666667 Ti
   0.0395639999999990    0.6267690000000000    0.0995805833333333 Ti
   0.0395639999999990    0.6267690000000000    0.2662472500000000 Ti
   0.4267149999999991    0.1029350000000001    0.4721275833333334 Ti
   0.4267149999999991    0.1029350000000001    0.1387942500000000 Ti
   0.4267149999999991    0.1029350000000001    0.3054609166666667 Ti
   0.4301250000000000    0.9143660000000000    0.0470234166666667 Ti
   0.4301250000000000    0.9143660000000000    0.2136900833333333 Ti
   0.4301250000000000    0.9143660000000000    0.3803567499999999 Ti
   0.8723019999999996    0.9280300000000002    0.0172147500000001 Ti
   0.8723019999999996    0.9280300000000002    0.1838814166666667 Ti
   0.8723019999999996    0.9280300000000002    0.3505480833333333 Ti
   0.1865880000000000    0.8336970000000010    0.4314619166666664 Ti
   0.1865880000000000    0.8336970000000010    0.0981285833333331 Ti
   0.1865880000000000    0.8336970000000010    0.2647952499999998 Ti
   0.6539610000000002    0.6951250000000000    0.4185147499999999 Ti
   0.6539610000000002    0.6951250000000000    0.0851814166666666 Ti
   0.6539610000000002    0.6951250000000000    0.2518480833333333 Ti
   0.3001759999999999    0.1249779999999997    0.4211542500000002 Ti
   0.3001759999999999    0.1249779999999997    0.0878209166666668 Ti
   0.3001759999999999    0.1249779999999997    0.2544875833333334 Ti
   0.2299519999999999    0.7013280000000000    0.0502384166666668 Ti
   0.2299519999999999    0.7013280000000000    0.2169050833333335 Ti
   0.2299519999999999    0.7013280000000000    0.3835717500000001 Ti
   0.2223479999999999    0.3955090000000000    0.4559019166666668 Ti
   0.2223479999999999    0.3955090000000000    0.1225685833333334 Ti
   0.2223479999999999    0.3955090000000000    0.2892352500000001 Ti
   0.5601389999999993    0.3160910000000000    0.4087314166666668 Ti
   0.5601389999999993    0.3160910000000000    0.0753980833333334 Ti
   0.5601389999999993    0.3160910000000000    0.2420647500000001 Ti
   0.0458439999999990    0.0765540000000000    0.4143964166666668 Ti
   0.0458439999999990    0.0765540000000000    0.0810630833333334 Ti
   0.0458439999999990    0.0765540000000000    0.2477297500000001 Ti
   0.7670669999999988    0.1698310000000008    0.4519624166666666 Ti
   0.7670669999999988    0.1698310000000008    0.1186290833333333 Ti
   0.7670669999999988    0.1698310000000008    0.2852957500000000 Ti
   0.0141669999999990    0.1413960000000010    0.0156620833333333 Ti
   0.0141669999999990    0.1413960000000010    0.1823287500000000 Ti
   0.0141669999999990    0.1413960000000010    0.3489954166666666 Ti
   0.9002000000000000    0.6815009999999999    0.0181277500000001 Ti
   0.9002000000000000    0.6815009999999999    0.1847944166666669 Ti
   0.9002000000000000    0.6815009999999999    0.3514610833333335 Ti
   0.9040300000000002    0.8948880000000002    0.4100117500000000 Ti
   0.9040300000000002    0.8948880000000002    0.0766784166666667 Ti
   0.9040300000000002    0.8948880000000002    0.2433450833333334 Ti
   0.2487680000000000    0.3399710000000001    0.0138729166666668 Ti
   0.2487680000000000    0.3399710000000001    0.1805395833333333 Ti
   0.2487680000000000    0.3399710000000001    0.3472062500000000 Ti
   0.6409000000000002    0.7353340000000003    0.4908165833333334 Ti
   0.6409000000000002    0.7353340000000003    0.1574832500000000 Ti
   0.6409000000000002    0.7353340000000003    0.3241499166666667 Ti
   0.6138279999999990    0.8367120000000000    0.0211275833333334 Ti
   0.6138279999999990    0.8367120000000000    0.1877942500000001 Ti
   0.6138279999999990    0.8367120000000000    0.3544609166666668 Ti
   0.5144870000000001    0.1248010000000002    0.0401712500000001 Ti
   0.5144870000000001    0.1248010000000002    0.2068379166666667 Ti
   0.5144870000000001    0.1248010000000002    0.3735045833333334 Ti
   0.7612200000000001    0.3121970000000009    0.0055837499999998 Ti
   0.7612200000000001    0.3121970000000009    0.1722504166666665 Ti
   0.7612200000000001    0.3121970000000009    0.3389170833333331 Ti
   0.8739560000000002    0.9910120000000001    0.0382629166666668 O
   0.8739560000000002    0.9910120000000001    0.2049295833333334 O
   0.8739560000000002    0.9910120000000001    0.3715962500000001 O
   0.8036150000000000    0.7133380000000001    0.4898542499999999 O
   0.8036150000000000    0.7133380000000001    0.1565209166666666 O
   0.8036150000000000    0.7133380000000001    0.3231875833333331 O
   0.9485159999999990    0.2054380000000000    0.0648985833333335 O
   0.9485159999999990    0.2054380000000000    0.2315652500000000 O
   0.9485159999999990    0.2054380000000000    0.3982319166666668 O
   0.2662120000000000    0.5014220000000009    0.0357979166666666 O
   0.2662120000000000    0.5014220000000009    0.2024645833333333 O
   0.2662120000000000    0.5014220000000009    0.3691312499999999 O
   0.8931300000000003    0.5236930000000000    0.4448440833333335 O
   0.8931300000000003    0.5236930000000000    0.1115107500000000 O
   0.8931300000000003    0.5236930000000000    0.2781774166666667 O
   0.3974479999999990    0.6925810000000001    0.0322847500000001 O
   0.3974479999999990    0.6925810000000001    0.1989514166666669 O
   0.3974479999999990    0.6925810000000001    0.3656180833333335 O
   0.2208709999999990    0.2082220000000000    0.0536430833333335 O
   0.2208709999999990    0.2082220000000000    0.2203097500000001 O
   0.2208709999999990    0.2082220000000000    0.3869764166666668 O
   0.5392760000000002    0.7732650000000000    0.0565710833333333 O
   0.5392760000000002    0.7732650000000000    0.2232377499999999 O
   0.5392760000000002    0.7732650000000000    0.3899044166666666 O
   0.5830440000000002    0.3545419999999999    0.0419580833333334 O
   0.5830440000000002    0.3545419999999999    0.2086247500000001 O
   0.5830440000000002    0.3545419999999999    0.3752914166666667 O
   0.1244670000000000    0.4280370000000000    0.0118829166666666 O
   0.1244670000000000    0.4280370000000000    0.1785495833333332 O
   0.1244670000000000    0.4280370000000000    0.3452162499999998 O
   0.0680549999999990    0.6614070000000000    0.4002319166666667 O
   0.0680549999999990    0.6614070000000000    0.0668985833333333 O
   0.0680549999999990    0.6614070000000000    0.2335652500000000 O
   0.2100409999999990    0.8127910000000002    0.0112665833333334 O
   0.2100409999999990    0.8127910000000002    0.1779332500000001 O
   0.2100409999999990    0.8127910000000002    0.3445999166666667 O
   0.6015980000000001    0.2259720000000008    0.0014942500000000 O
   0.6015980000000001    0.2259720000000008    0.1681609166666666 O
   0.6015980000000001    0.2259720000000008    0.3348275833333333 O
   0.9369569999999992    0.8329630000000001    0.0098869166666666 O
   0.9369569999999992    0.8329630000000001    0.1765535833333332 O
   0.9369569999999992    0.8329630000000001    0.3432202499999999 O
   0.7478680000000001    0.3017190000000008    0.4109564166666667 O
   0.7478680000000001    0.3017190000000008    0.0776230833333333 O
   0.7478680000000001    0.3017190000000008    0.2442897500000000 O
   0.1286800000000000    0.6762770000000001    0.4638169166666667 O
   0.1286800000000000    0.6762770000000001    0.1304835833333335 O
   0.1286800000000000    0.6762770000000001    0.2971502500000001 O
   0.3732089999999991    0.0628869999999998    0.0329679166666667 O
   0.3732089999999991    0.0628869999999998    0.1996345833333333 O
   0.3732089999999991    0.0628869999999998    0.3663012500000000 O
   0.9236479999999990    0.9405430000000010    0.4316889166666666 O
   0.9236479999999990    0.9405430000000010    0.0983555833333334 O
   0.9236479999999990    0.9405430000000010    0.2650222500000000 O
   0.9223730000000000    0.1389929999999998    0.4541330833333335 O
   0.9223730000000000    0.1389929999999998    0.1207997500000001 O
   0.9223730000000000    0.1389929999999998    0.2874664166666668 O
   0.9020089999999999    0.2535110000000002    0.0013652500000000 O
   0.9020089999999999    0.2535110000000002    0.1680319166666665 O
   0.9020089999999999    0.2535110000000002    0.3346985833333331 O
   0.5288700000000001    0.4666590000000002    0.0640667499999999 O
   0.5288700000000001    0.4666590000000002    0.2307334166666666 O
   0.5288700000000001    0.4666590000000002    0.3974000833333332 O
   0.0372740000000000    0.6255510000000000    0.0134730833333335 O
   0.0372740000000000    0.6255510000000000    0.1801397500000002 O
   0.0372740000000000    0.6255510000000000    0.3468064166666668 O
   0.7350010000000000    0.9933010000000002    0.4948910833333334 O
   0.7350010000000000    0.9933010000000002    0.1615577500000001 O
   0.7350010000000000    0.9933010000000002    0.3282244166666666 O
   0.7777479999999998    0.7652890000000001    0.4267892500000000 O
   0.7777479999999998    0.7652890000000001    0.0934559166666666 O
   0.7777479999999998    0.7652890000000001    0.2601225833333332 O
   0.1128660000000000    0.3028190000000008    0.4505540833333334 O
   0.1128660000000000    0.3028190000000008    0.1172207500000000 O
   0.1128660000000000    0.3028190000000008    0.2838874166666667 O
   0.5646110000000001    0.9682820000000010    0.0566722499999999 O
   0.5646110000000001    0.9682820000000010    0.2233389166666665 O
   0.5646110000000001    0.9682820000000010    0.3900055833333331 O
   0.8562139999999991    0.5527519999999999    0.0576977500000001 O
   0.8562139999999991    0.5527519999999999    0.2243644166666667 O
   0.8562139999999991    0.5527519999999999    0.3910310833333335 O
   0.2876890000000000    0.7950530000000001    0.0578934166666666 O
   0.2876890000000000    0.7950530000000001    0.2245600833333334 O
   0.2876890000000000    0.7950530000000001    0.3912267500000000 O
   0.3119490000000000    0.7310080000000001    0.4824512500000001 O
   0.3119490000000000    0.7310080000000001    0.1491179166666668 O
   0.3119490000000000    0.7310080000000001    0.3157845833333335 O
   0.6368840000000000    0.4425230000000001    0.4842529166666668 O
   0.6368840000000000    0.4425230000000001    0.1509195833333335 O
   0.6368840000000000    0.4425230000000001    0.3175862500000001 O
   0.4617560000000002    0.0854470000000001    0.4103030833333334 O
   0.4617560000000002    0.0854470000000001    0.0769697500000001 O
   0.4617560000000002    0.0854470000000001    0.2436364166666668 O
   0.0542060000000000    0.0632090000000008    0.0520619166666667 O
   0.0542060000000000    0.0632090000000008    0.2187285833333334 O
   0.0542060000000000    0.0632090000000008    0.3853952500000000 O
   0.3509839999999990    0.8173380000000001    0.4275084166666666 O
   0.3509839999999990    0.8173380000000001    0.0941750833333333 O
   0.3509839999999990    0.8173380000000001    0.2608417500000000 O
   0.4720379999999992    0.9702880000000003    0.0089177499999999 O
   0.4720379999999992    0.9702880000000003    0.1755844166666666 O
   0.4720379999999992    0.9702880000000003    0.3422510833333332 O
   0.7638309999999990    0.7918760000000000    0.0475805833333335 O
   0.7638309999999990    0.7918760000000000    0.2142472500000001 O
   0.7638309999999990    0.7918760000000000    0.3809139166666667 O
   0.5759319999999999    0.1332180000000011    0.4479859166666666 O
   0.5759319999999999    0.1332180000000011    0.1146525833333333 O
   0.5759319999999999    0.1332180000000011    0.2813192499999998 O
   0.4226640000000000    0.2914620000000000    0.0203090833333333 O
   0.4226640000000000    0.2914620000000000    0.1869757500000000 O
   0.4226640000000000    0.2914620000000000    0.3536424166666666 O
   0.1914030000000000    0.9599750000000002    0.4319917500000001 O
   0.1914030000000000    0.9599750000000002    0.0986584166666667 O
   0.1914030000000000    0.9599750000000002    0.2653250833333334 O
   0.1594519999999990    0.5195680000000009    0.4522779166666664 O
   0.1594519999999990    0.5195680000000009    0.1189445833333332 O
   0.1594519999999990    0.5195680000000009    0.2856112499999998 O
   0.1384619999999999    0.1140920000000008    0.4373954166666665 O
   0.1384619999999999    0.1140920000000008    0.1040620833333332 O
   0.1384619999999999    0.1140920000000008    0.2707287499999999 O
   0.3836949999999998    0.2549929999999998    0.4173072500000000 O
   0.3836949999999998    0.2549929999999998    0.0839739166666666 O
   0.3836949999999998    0.2549929999999998    0.2506405833333333 O
   0.2678300000000000    0.5161840000000010    0.4132354166666666 O
   0.2678300000000000    0.5161840000000010    0.0799020833333332 O
   0.2678300000000000    0.5161840000000010    0.2465687499999999 O
   0.7179100000000000    0.0698520000000002    0.4292949166666667 O
   0.7179100000000000    0.0698520000000002    0.0959615833333334 O
   0.7179100000000000    0.0698520000000002    0.2626282500000001 O
   0.3878410000000001    0.4028710000000002    0.4635432500000001 O
   0.3878410000000001    0.4028710000000002    0.1302099166666668 O
   0.3878410000000001    0.4028710000000002    0.2968765833333334 O
   0.3703140000000000    0.9993610000000012    0.4600944166666665 O
   0.3703140000000000    0.9993610000000012    0.1267610833333331 O
   0.3703140000000000    0.9993610000000012    0.2934277499999999 O
   0.1724170000000000    0.2708770000000001    0.4987115833333333 O
   0.1724170000000000    0.2708770000000001    0.1653782499999999 O
   0.1724170000000000    0.2708770000000001    0.3320449166666666 O
   0.0296230000000000    0.0548199999999999    0.0013414166666668 O
   0.0296230000000000    0.0548199999999999    0.1680080833333334 O
   0.0296230000000000    0.0548199999999999    0.3346747500000000 O
   0.0428710000000000    0.8070050000000001    0.4152469166666668 O
   0.0428710000000000    0.8070050000000001    0.0819135833333334 O
   0.0428710000000000    0.8070050000000001    0.2485802500000001 O
   0.7001120000000000    0.1780890000000001    0.0430034166666666 O
   0.7001120000000000    0.1780890000000001    0.2096700833333332 O
   0.7001120000000000    0.1780890000000001    0.3763367500000000 O
   0.5427529999999994    0.6028380000000010    0.4986585833333332 O
   0.5427529999999994    0.6028380000000010    0.1653252499999999 O
   0.5427529999999994    0.6028380000000010    0.3319919166666666 O
   0.6677839999999992    0.7085150000000000    0.0243615833333334 O
   0.6677839999999992    0.7085150000000000    0.1910282500000001 O
   0.6677839999999992    0.7085150000000000    0.3576949166666668 O
   0.5019669999999992    0.2638999999999998    0.4574384166666668 O
   0.5019669999999992    0.2638999999999998    0.1241050833333335 O
   0.5019669999999992    0.2638999999999998    0.2907717500000001 O
   0.5481920000000000    0.8703910000000000    0.4863207500000001 O
   0.5481920000000000    0.8703910000000000    0.1529874166666667 O
   0.5481920000000000    0.8703910000000000    0.3196540833333334 O
   0.5340460000000001    0.6660159999999999    0.4437529166666666 O
   0.5340460000000001    0.6660159999999999    0.1104195833333333 O
   0.5340460000000001    0.6660159999999999    0.2770862500000000 O
   0.3606370000000000    0.5156370000000000    0.4897217500000001 O
   0.3606370000000000    0.5156370000000000    0.1563884166666668 O
   0.3606370000000000    0.5156370000000000    0.3230550833333334 O
   0.7773439999999990    0.3032550000000002    0.4522710833333334 O
   0.7773439999999990    0.3032550000000002    0.1189377500000001 O
   0.7773439999999990    0.3032550000000002    0.2856044166666668 O
   0.2641879999999999    0.1172580000000010    0.4751789166666666 O
   0.2641879999999999    0.1172580000000010    0.1418455833333333 O
   0.2641879999999999    0.1172580000000010    0.3085122499999998 O
   0.8271069999999990    0.3857580000000001    0.0187385833333334 O
   0.8271069999999990    0.3857580000000001    0.1854052500000000 O
   0.8271069999999990    0.3857580000000001    0.3520719166666668 O
   0.6517999999999999    0.5210360000000001    0.4316969166666668 O
   0.6517999999999999    0.5210360000000001    0.0983635833333334 O
   0.6517999999999999    0.5210360000000001    0.2650302500000001 O
   0.5605660000000001    0.8361070000000010    0.4532479166666664 O
   0.5605660000000001    0.8361070000000010    0.1199145833333331 O
   0.5605660000000001    0.8361070000000010    0.2865812499999998 O
