Ti90 O180
1.0
  10.7847349425586163    0.0000000000000000    0.0060328200944446
  -1.2247047225377732   10.4583487854001529    9.3482210382165096
   0.0000000000000000    0.0000000000000000   62.9170570674836966
Ti O
90 180
direct
   0.3479379999999991    0.8204740000000001    0.0196806666666667 Ti
   0.3479379999999991    0.8204740000000001    0.1863473333333335 Ti
   0.3479379999999991    0.8204740000000001    0.3530140000000001 Ti
   0.1008690000000000    0.1441720000000008    0.4893463333333333 Ti
   0.1008690000000000    0.1441720000000008    0.1560129999999999 Ti
   0.1008690000000000    0.1441720000000008    0.3226796666666665 Ti
   0.8065249999999994    0.4774350000000001    0.4531631666666667 Ti
   0.8065249999999994    0.4774350000000001    0.1198298333333334 Ti
   0.8065249999999994    0.4774350000000001    0.2864965000000000 Ti
   0.7909490000000001    0.2465539999999999    0.0843550000000001 Ti
   0.7909490000000001    0.2465539999999999    0.2510216666666669 Ti
   0.7909490000000001    0.2465539999999999    0.4176883333333335 Ti
   0.4398120000000000    0.7044890000000010    0.4870528333333333 Ti
   0.4398120000000000    0.7044890000000010    0.1537194999999998 Ti
   0.4398120000000000    0.7044890000000010    0.3203861666666665 Ti
   0.1631409999999990    0.5778510000000001    0.0300593333333334 Ti
   0.1631409999999990    0.5778510000000001    0.1967260000000001 Ti
   0.1631409999999990    0.5778510000000001    0.3633926666666667 Ti
   0.5602509999999991    0.0046750000000008    0.4686975000000000 Ti
   0.5602509999999991    0.0046750000000008    0.1353641666666666 Ti
   0.5602509999999991    0.0046750000000008    0.3020308333333334 Ti
   0.5211030000000000    0.4422479999999999    0.0320208333333334 Ti
   0.5211030000000000    0.4422479999999999    0.1986875000000001 Ti
   0.5211030000000000    0.4422479999999999    0.3653541666666668 Ti
   0.5445340000000000    0.3619320000000000    0.4923153333333333 Ti
   0.5445340000000000    0.3619320000000000    0.1589819999999998 Ti
   0.5445340000000000    0.3619320000000000    0.3256486666666665 Ti
   0.3685410000000002    0.5153020000000010    0.0822018333333331 Ti
   0.3685410000000002    0.5153020000000010    0.2488684999999997 Ti
   0.3685410000000002    0.5153020000000010    0.4155351666666665 Ti
   0.0395639999999990    0.6267690000000000    0.4592606666666667 Ti
   0.0395639999999990    0.6267690000000000    0.1259273333333333 Ti
   0.0395639999999990    0.6267690000000000    0.2925940000000000 Ti
   0.4267149999999991    0.1029350000000001    0.4984743333333334 Ti
   0.4267149999999991    0.1029350000000001    0.1651410000000000 Ti
   0.4267149999999991    0.1029350000000001    0.3318076666666667 Ti
   0.4301250000000000    0.9143660000000000    0.0733701666666666 Ti
   0.4301250000000000    0.9143660000000000    0.2400368333333333 Ti
   0.4301250000000000    0.9143660000000000    0.4067034999999999 Ti
   0.8723019999999996    0.9280300000000002    0.0435615000000001 Ti
   0.8723019999999996    0.9280300000000002    0.2102281666666667 Ti
   0.8723019999999996    0.9280300000000002    0.3768948333333333 Ti
   0.1865880000000000    0.8336970000000010    0.4578086666666664 Ti
   0.1865880000000000    0.8336970000000010    0.1244753333333331 Ti
   0.1865880000000000    0.8336970000000010    0.2911419999999998 Ti
   0.6539610000000002    0.6951250000000000    0.4448614999999999 Ti
   0.6539610000000002    0.6951250000000000    0.1115281666666666 Ti
   0.6539610000000002    0.6951250000000000    0.2781948333333333 Ti
   0.3001759999999999    0.1249779999999997    0.4475010000000001 Ti
   0.3001759999999999    0.1249779999999997    0.1141676666666668 Ti
   0.3001759999999999    0.1249779999999997    0.2808343333333335 Ti
   0.2299519999999999    0.7013280000000000    0.0765851666666668 Ti
   0.2299519999999999    0.7013280000000000    0.2432518333333335 Ti
   0.2299519999999999    0.7013280000000000    0.4099185000000001 Ti
   0.2223479999999999    0.3955090000000000    0.4822486666666668 Ti
   0.2223479999999999    0.3955090000000000    0.1489153333333334 Ti
   0.2223479999999999    0.3955090000000000    0.3155820000000001 Ti
   0.5601389999999993    0.3160910000000000    0.4350781666666668 Ti
   0.5601389999999993    0.3160910000000000    0.1017448333333334 Ti
   0.5601389999999993    0.3160910000000000    0.2684115000000001 Ti
   0.0458439999999990    0.0765540000000000    0.4407431666666667 Ti
   0.0458439999999990    0.0765540000000000    0.1074098333333334 Ti
   0.0458439999999990    0.0765540000000000    0.2740765000000001 Ti
   0.7670669999999988    0.1698310000000008    0.4783091666666666 Ti
   0.7670669999999988    0.1698310000000008    0.1449758333333333 Ti
   0.7670669999999988    0.1698310000000008    0.3116425000000000 Ti
   0.0141669999999990    0.1413960000000010    0.0420088333333332 Ti
   0.0141669999999990    0.1413960000000010    0.2086755000000000 Ti
   0.0141669999999990    0.1413960000000010    0.3753421666666666 Ti
   0.9002000000000000    0.6815009999999999    0.0444745000000001 Ti
   0.9002000000000000    0.6815009999999999    0.2111411666666669 Ti
   0.9002000000000000    0.6815009999999999    0.3778078333333335 Ti
   0.9040300000000002    0.8948880000000002    0.4363585000000000 Ti
   0.9040300000000002    0.8948880000000002    0.1030251666666667 Ti
   0.9040300000000002    0.8948880000000002    0.2696918333333334 Ti
   0.2487680000000000    0.3399710000000001    0.0402196666666668 Ti
   0.2487680000000000    0.3399710000000001    0.2068863333333333 Ti
   0.2487680000000000    0.3399710000000001    0.3735530000000000 Ti
   0.6409000000000002    0.7353340000000003    0.0171633333333334 Ti
   0.6409000000000002    0.7353340000000003    0.1838300000000000 Ti
   0.6409000000000002    0.7353340000000003    0.3504966666666667 Ti
   0.6138279999999990    0.8367120000000000    0.0474743333333334 Ti
   0.6138279999999990    0.8367120000000000    0.2141410000000001 Ti
   0.6138279999999990    0.8367120000000000    0.3808076666666668 Ti
   0.5144870000000001    0.1248010000000002    0.0665180000000001 Ti
   0.5144870000000001    0.1248010000000002    0.2331846666666667 Ti
   0.5144870000000001    0.1248010000000002    0.3998513333333334 Ti
   0.7612200000000001    0.3121970000000009    0.0319304999999998 Ti
   0.7612200000000001    0.3121970000000009    0.1985971666666665 Ti
   0.7612200000000001    0.3121970000000009    0.3652638333333332 Ti
   0.8739560000000002    0.9910120000000001    0.0646096666666668 O
   0.8739560000000002    0.9910120000000001    0.2312763333333334 O
   0.8739560000000002    0.9910120000000001    0.3979430000000000 O
   0.8036150000000000    0.7133380000000001    0.0162009999999999 O
   0.8036150000000000    0.7133380000000001    0.1828676666666666 O
   0.8036150000000000    0.7133380000000001    0.3495343333333331 O
   0.9485159999999990    0.2054380000000000    0.0912453333333334 O
   0.9485159999999990    0.2054380000000000    0.2579120000000000 O
   0.9485159999999990    0.2054380000000000    0.4245786666666668 O
   0.2662120000000000    0.5014220000000009    0.0621446666666666 O
   0.2662120000000000    0.5014220000000009    0.2288113333333333 O
   0.2662120000000000    0.5014220000000009    0.3954779999999999 O
   0.8931300000000003    0.5236930000000000    0.4711908333333334 O
   0.8931300000000003    0.5236930000000000    0.1378575000000000 O
   0.8931300000000003    0.5236930000000000    0.3045241666666668 O
   0.3974479999999990    0.6925810000000001    0.0586315000000000 O
   0.3974479999999990    0.6925810000000001    0.2252981666666669 O
   0.3974479999999990    0.6925810000000001    0.3919648333333334 O
   0.2208709999999990    0.2082220000000000    0.0799898333333335 O
   0.2208709999999990    0.2082220000000000    0.2466565000000001 O
   0.2208709999999990    0.2082220000000000    0.4133231666666669 O
   0.5392760000000002    0.7732650000000000    0.0829178333333333 O
   0.5392760000000002    0.7732650000000000    0.2495844999999999 O
   0.5392760000000002    0.7732650000000000    0.4162511666666667 O
   0.5830440000000002    0.3545419999999999    0.0683048333333334 O
   0.5830440000000002    0.3545419999999999    0.2349715000000001 O
   0.5830440000000002    0.3545419999999999    0.4016381666666666 O
   0.1244670000000000    0.4280370000000000    0.0382296666666666 O
   0.1244670000000000    0.4280370000000000    0.2048963333333332 O
   0.1244670000000000    0.4280370000000000    0.3715629999999998 O
   0.0680549999999990    0.6614070000000000    0.4265786666666668 O
   0.0680549999999990    0.6614070000000000    0.0932453333333333 O
   0.0680549999999990    0.6614070000000000    0.2599120000000000 O
   0.2100409999999990    0.8127910000000002    0.0376133333333334 O
   0.2100409999999990    0.8127910000000002    0.2042800000000001 O
   0.2100409999999990    0.8127910000000002    0.3709466666666667 O
   0.6015980000000001    0.2259720000000008    0.0278409999999999 O
   0.6015980000000001    0.2259720000000008    0.1945076666666666 O
   0.6015980000000001    0.2259720000000008    0.3611743333333333 O
   0.9369569999999992    0.8329630000000001    0.0362336666666666 O
   0.9369569999999992    0.8329630000000001    0.2029003333333332 O
   0.9369569999999992    0.8329630000000001    0.3695669999999999 O
   0.7478680000000001    0.3017190000000008    0.4373031666666666 O
   0.7478680000000001    0.3017190000000008    0.1039698333333333 O
   0.7478680000000001    0.3017190000000008    0.2706365000000000 O
   0.1286800000000000    0.6762770000000001    0.4901636666666667 O
   0.1286800000000000    0.6762770000000001    0.1568303333333335 O
   0.1286800000000000    0.6762770000000001    0.3234970000000001 O
   0.3732089999999991    0.0628869999999998    0.0593146666666666 O
   0.3732089999999991    0.0628869999999998    0.2259813333333333 O
   0.3732089999999991    0.0628869999999998    0.3926480000000000 O
   0.9236479999999990    0.9405430000000010    0.4580356666666667 O
   0.9236479999999990    0.9405430000000010    0.1247023333333333 O
   0.9236479999999990    0.9405430000000010    0.2913690000000000 O
   0.9223730000000000    0.1389929999999998    0.4804798333333334 O
   0.9223730000000000    0.1389929999999998    0.1471465000000001 O
   0.9223730000000000    0.1389929999999998    0.3138131666666668 O
   0.9020089999999999    0.2535110000000002    0.0277119999999999 O
   0.9020089999999999    0.2535110000000002    0.1943786666666665 O
   0.9020089999999999    0.2535110000000002    0.3610453333333332 O
   0.5288700000000001    0.4666590000000002    0.0904134999999999 O
   0.5288700000000001    0.4666590000000002    0.2570801666666666 O
   0.5288700000000001    0.4666590000000002    0.4237468333333332 O
   0.0372740000000000    0.6255510000000000    0.0398198333333335 O
   0.0372740000000000    0.6255510000000000    0.2064865000000002 O
   0.0372740000000000    0.6255510000000000    0.3731531666666668 O
   0.7350010000000000    0.9933010000000002    0.0212378333333334 O
   0.7350010000000000    0.9933010000000002    0.1879045000000001 O
   0.7350010000000000    0.9933010000000002    0.3545711666666666 O
   0.7777479999999998    0.7652890000000001    0.4531359999999999 O
   0.7777479999999998    0.7652890000000001    0.1198026666666666 O
   0.7777479999999998    0.7652890000000001    0.2864693333333332 O
   0.1128660000000000    0.3028190000000008    0.4769008333333333 O
   0.1128660000000000    0.3028190000000008    0.1435675000000000 O
   0.1128660000000000    0.3028190000000008    0.3102341666666667 O
   0.5646110000000001    0.9682820000000010    0.0830189999999999 O
   0.5646110000000001    0.9682820000000010    0.2496856666666665 O
   0.5646110000000001    0.9682820000000010    0.4163523333333332 O
   0.8562139999999991    0.5527519999999999    0.0840445000000001 O
   0.8562139999999991    0.5527519999999999    0.2507111666666667 O
   0.8562139999999991    0.5527519999999999    0.4173778333333335 O
   0.2876890000000000    0.7950530000000001    0.0842401666666666 O
   0.2876890000000000    0.7950530000000001    0.2509068333333334 O
   0.2876890000000000    0.7950530000000001    0.4175735000000000 O
   0.3119490000000000    0.7310080000000001    0.0087980000000001 O
   0.3119490000000000    0.7310080000000001    0.1754646666666668 O
   0.3119490000000000    0.7310080000000001    0.3421313333333335 O
   0.6368840000000000    0.4425230000000001    0.0105996666666668 O
   0.6368840000000000    0.4425230000000001    0.1772663333333335 O
   0.6368840000000000    0.4425230000000001    0.3439330000000001 O
   0.4617560000000002    0.0854470000000001    0.4366498333333334 O
   0.4617560000000002    0.0854470000000001    0.1033165000000001 O
   0.4617560000000002    0.0854470000000001    0.2699831666666668 O
   0.0542060000000000    0.0632090000000008    0.0784086666666666 O
   0.0542060000000000    0.0632090000000008    0.2450753333333334 O
   0.0542060000000000    0.0632090000000008    0.4117420000000000 O
   0.3509839999999990    0.8173380000000001    0.4538551666666666 O
   0.3509839999999990    0.8173380000000001    0.1205218333333333 O
   0.3509839999999990    0.8173380000000001    0.2871885000000000 O
   0.4720379999999992    0.9702880000000003    0.0352644999999999 O
   0.4720379999999992    0.9702880000000003    0.2019311666666666 O
   0.4720379999999992    0.9702880000000003    0.3685978333333332 O
   0.7638309999999990    0.7918760000000000    0.0739273333333334 O
   0.7638309999999990    0.7918760000000000    0.2405940000000001 O
   0.7638309999999990    0.7918760000000000    0.4072606666666668 O
   0.5759319999999999    0.1332180000000011    0.4743326666666666 O
   0.5759319999999999    0.1332180000000011    0.1409993333333333 O
   0.5759319999999999    0.1332180000000011    0.3076659999999998 O
   0.4226640000000000    0.2914620000000000    0.0466558333333333 O
   0.4226640000000000    0.2914620000000000    0.2133225000000000 O
   0.4226640000000000    0.2914620000000000    0.3799891666666666 O
   0.1914030000000000    0.9599750000000002    0.4583385000000000 O
   0.1914030000000000    0.9599750000000002    0.1250051666666667 O
   0.1914030000000000    0.9599750000000002    0.2916718333333334 O
   0.1594519999999990    0.5195680000000009    0.4786246666666664 O
   0.1594519999999990    0.5195680000000009    0.1452913333333332 O
   0.1594519999999990    0.5195680000000009    0.3119579999999998 O
   0.1384619999999999    0.1140920000000008    0.4637421666666665 O
   0.1384619999999999    0.1140920000000008    0.1304088333333332 O
   0.1384619999999999    0.1140920000000008    0.2970754999999998 O
   0.3836949999999998    0.2549929999999998    0.4436539999999999 O
   0.3836949999999998    0.2549929999999998    0.1103206666666666 O
   0.3836949999999998    0.2549929999999998    0.2769873333333333 O
   0.2678300000000000    0.5161840000000010    0.4395821666666666 O
   0.2678300000000000    0.5161840000000010    0.1062488333333332 O
   0.2678300000000000    0.5161840000000010    0.2729154999999999 O
   0.7179100000000000    0.0698520000000002    0.4556416666666668 O
   0.7179100000000000    0.0698520000000002    0.1223083333333334 O
   0.7179100000000000    0.0698520000000002    0.2889750000000001 O
   0.3878410000000001    0.4028710000000002    0.4898900000000000 O
   0.3878410000000001    0.4028710000000002    0.1565566666666667 O
   0.3878410000000001    0.4028710000000002    0.3232233333333335 O
   0.3703140000000000    0.9993610000000012    0.4864411666666664 O
   0.3703140000000000    0.9993610000000012    0.1531078333333331 O
   0.3703140000000000    0.9993610000000012    0.3197744999999999 O
   0.1724170000000000    0.2708770000000001    0.0250583333333333 O
   0.1724170000000000    0.2708770000000001    0.1917249999999999 O
   0.1724170000000000    0.2708770000000001    0.3583916666666666 O
   0.0296230000000000    0.0548199999999999    0.0276881666666668 O
   0.0296230000000000    0.0548199999999999    0.1943548333333334 O
   0.0296230000000000    0.0548199999999999    0.3610215000000000 O
   0.0428710000000000    0.8070050000000001    0.4415936666666668 O
   0.0428710000000000    0.8070050000000001    0.1082603333333334 O
   0.0428710000000000    0.8070050000000001    0.2749270000000001 O
   0.7001120000000000    0.1780890000000001    0.0693501666666666 O
   0.7001120000000000    0.1780890000000001    0.2360168333333332 O
   0.7001120000000000    0.1780890000000001    0.4026835000000000 O
   0.5427529999999994    0.6028380000000010    0.0250053333333332 O
   0.5427529999999994    0.6028380000000010    0.1916719999999999 O
   0.5427529999999994    0.6028380000000010    0.3583386666666666 O
   0.6677839999999992    0.7085150000000000    0.0507083333333334 O
   0.6677839999999992    0.7085150000000000    0.2173750000000001 O
   0.6677839999999992    0.7085150000000000    0.3840416666666667 O
   0.5019669999999992    0.2638999999999998    0.4837851666666668 O
   0.5019669999999992    0.2638999999999998    0.1504518333333335 O
   0.5019669999999992    0.2638999999999998    0.3171185000000001 O
   0.5481920000000000    0.8703910000000000    0.0126675000000001 O
   0.5481920000000000    0.8703910000000000    0.1793341666666667 O
   0.5481920000000000    0.8703910000000000    0.3460008333333335 O
   0.5340460000000001    0.6660159999999999    0.4700996666666666 O
   0.5340460000000001    0.6660159999999999    0.1367663333333333 O
   0.5340460000000001    0.6660159999999999    0.3034330000000000 O
   0.3606370000000000    0.5156370000000000    0.0160685000000001 O
   0.3606370000000000    0.5156370000000000    0.1827351666666668 O
   0.3606370000000000    0.5156370000000000    0.3494018333333334 O
   0.7773439999999990    0.3032550000000002    0.4786178333333334 O
   0.7773439999999990    0.3032550000000002    0.1452845000000000 O
   0.7773439999999990    0.3032550000000002    0.3119511666666668 O
   0.2641879999999999    0.1172580000000010    0.0015256666666666 O
   0.2641879999999999    0.1172580000000010    0.1681923333333333 O
   0.2641879999999999    0.1172580000000010    0.3348589999999999 O
   0.8271069999999990    0.3857580000000001    0.0450853333333334 O
   0.8271069999999990    0.3857580000000001    0.2117520000000001 O
   0.8271069999999990    0.3857580000000001    0.3784186666666668 O
   0.6517999999999999    0.5210360000000001    0.4580436666666667 O
   0.6517999999999999    0.5210360000000001    0.1247103333333334 O
   0.6517999999999999    0.5210360000000001    0.2913770000000002 O
   0.5605660000000001    0.8361070000000010    0.4795946666666664 O
   0.5605660000000001    0.8361070000000010    0.1462613333333331 O
   0.5605660000000001    0.8361070000000010    0.3129279999999998 O
