Ti90 O180
1.0
  10.7847349425586163    0.0000000000000000    0.0060328200944446
  -1.2247047225377732   10.4583487854001529    9.3482210382165096
   0.0000000000000000    0.0000000000000000   62.9170570674836966
Ti O
90 180
direct
   0.3479379999999991    0.8204740000000001    0.0805589166666666 Ti
   0.3479379999999991    0.8204740000000001    0.2472255833333334 Ti
   0.3479379999999991    0.8204740000000001    0.4138922500000000 Ti
   0.1008690000000000    0.1441720000000008    0.0502245833333332 Ti
   0.1008690000000000    0.1441720000000008    0.2168912499999998 Ti
   0.1008690000000000    0.1441720000000008    0.3835579166666664 Ti
   0.8065249999999994    0.4774350000000001    0.0140414166666666 Ti
   0.8065249999999994    0.4774350000000001    0.1807080833333333 Ti
   0.8065249999999994    0.4774350000000001    0.3473747499999999 Ti
   0.7909490000000001    0.2465539999999999    0.1452332500000000 Ti
   0.7909490000000001    0.2465539999999999    0.3118999166666667 Ti
   0.7909490000000001    0.2465539999999999    0.4785665833333334 Ti
   0.4398120000000000    0.7044890000000010    0.0479310833333331 Ti
   0.4398120000000000    0.7044890000000010    0.2145977499999997 Ti
   0.4398120000000000    0.7044890000000010    0.3812644166666664 Ti
   0.1631409999999990    0.5778510000000001    0.0909375833333333 Ti
   0.1631409999999990    0.5778510000000001    0.2576042499999999 Ti
   0.1631409999999990    0.5778510000000001    0.4242709166666666 Ti
   0.5602509999999991    0.0046750000000008    0.0295757499999999 Ti
   0.5602509999999991    0.0046750000000008    0.1962424166666665 Ti
   0.5602509999999991    0.0046750000000008    0.3629090833333332 Ti
   0.5211030000000000    0.4422479999999999    0.0928990833333333 Ti
   0.5211030000000000    0.4422479999999999    0.2595657500000000 Ti
   0.5211030000000000    0.4422479999999999    0.4262324166666667 Ti
   0.5445340000000000    0.3619320000000000    0.0531935833333332 Ti
   0.5445340000000000    0.3619320000000000    0.2198602499999997 Ti
   0.5445340000000000    0.3619320000000000    0.3865269166666664 Ti
   0.3685410000000002    0.5153020000000010    0.1430800833333330 Ti
   0.3685410000000002    0.5153020000000010    0.3097467499999996 Ti
   0.3685410000000002    0.5153020000000010    0.4764134166666664 Ti
   0.0395639999999990    0.6267690000000000    0.0201389166666666 Ti
   0.0395639999999990    0.6267690000000000    0.1868055833333332 Ti
   0.0395639999999990    0.6267690000000000    0.3534722499999999 Ti
   0.4267149999999991    0.1029350000000001    0.0593525833333333 Ti
   0.4267149999999991    0.1029350000000001    0.2260192499999999 Ti
   0.4267149999999991    0.1029350000000001    0.3926859166666666 Ti
   0.4301250000000000    0.9143660000000000    0.1342484166666665 Ti
   0.4301250000000000    0.9143660000000000    0.3009150833333332 Ti
   0.4301250000000000    0.9143660000000000    0.4675817499999998 Ti
   0.8723019999999996    0.9280300000000002    0.1044397500000000 Ti
   0.8723019999999996    0.9280300000000002    0.2711064166666666 Ti
   0.8723019999999996    0.9280300000000002    0.4377730833333331 Ti
   0.1865880000000000    0.8336970000000010    0.0186869166666663 Ti
   0.1865880000000000    0.8336970000000010    0.1853535833333330 Ti
   0.1865880000000000    0.8336970000000010    0.3520202499999996 Ti
   0.6539610000000002    0.6951250000000000    0.0057397499999998 Ti
   0.6539610000000002    0.6951250000000000    0.1724064166666665 Ti
   0.6539610000000002    0.6951250000000000    0.3390730833333332 Ti
   0.3001759999999999    0.1249779999999997    0.0083792500000000 Ti
   0.3001759999999999    0.1249779999999997    0.1750459166666667 Ti
   0.3001759999999999    0.1249779999999997    0.3417125833333333 Ti
   0.2299519999999999    0.7013280000000000    0.1374634166666667 Ti
   0.2299519999999999    0.7013280000000000    0.3041300833333334 Ti
   0.2299519999999999    0.7013280000000000    0.4707967500000000 Ti
   0.2223479999999999    0.3955090000000000    0.0431269166666667 Ti
   0.2223479999999999    0.3955090000000000    0.2097935833333333 Ti
   0.2223479999999999    0.3955090000000000    0.3764602499999999 Ti
   0.5601389999999993    0.3160910000000000    0.4959564166666666 Ti
   0.5601389999999993    0.3160910000000000    0.1626230833333333 Ti
   0.5601389999999993    0.3160910000000000    0.3292897499999999 Ti
   0.0458439999999990    0.0765540000000000    0.0016214166666666 Ti
   0.0458439999999990    0.0765540000000000    0.1682880833333333 Ti
   0.0458439999999990    0.0765540000000000    0.3349547500000000 Ti
   0.7670669999999988    0.1698310000000008    0.0391874166666665 Ti
   0.7670669999999988    0.1698310000000008    0.2058540833333332 Ti
   0.7670669999999988    0.1698310000000008    0.3725207499999998 Ti
   0.0141669999999990    0.1413960000000010    0.1028870833333331 Ti
   0.0141669999999990    0.1413960000000010    0.2695537499999998 Ti
   0.0141669999999990    0.1413960000000010    0.4362204166666664 Ti
   0.9002000000000000    0.6815009999999999    0.1053527500000000 Ti
   0.9002000000000000    0.6815009999999999    0.2720194166666667 Ti
   0.9002000000000000    0.6815009999999999    0.4386860833333334 Ti
   0.9040300000000002    0.8948880000000002    0.4972367499999999 Ti
   0.9040300000000002    0.8948880000000002    0.1639034166666666 Ti
   0.9040300000000002    0.8948880000000002    0.3305700833333333 Ti
   0.2487680000000000    0.3399710000000001    0.1010979166666666 Ti
   0.2487680000000000    0.3399710000000001    0.2677645833333332 Ti
   0.2487680000000000    0.3399710000000001    0.4344312499999999 Ti
   0.6409000000000002    0.7353340000000003    0.0780415833333333 Ti
   0.6409000000000002    0.7353340000000003    0.2447082499999999 Ti
   0.6409000000000002    0.7353340000000003    0.4113749166666666 Ti
   0.6138279999999990    0.8367120000000000    0.1083525833333333 Ti
   0.6138279999999990    0.8367120000000000    0.2750192500000000 Ti
   0.6138279999999990    0.8367120000000000    0.4416859166666666 Ti
   0.5144870000000001    0.1248010000000002    0.1273962500000000 Ti
   0.5144870000000001    0.1248010000000002    0.2940629166666666 Ti
   0.5144870000000001    0.1248010000000002    0.4607295833333332 Ti
   0.7612200000000001    0.3121970000000009    0.0928087499999997 Ti
   0.7612200000000001    0.3121970000000009    0.2594754166666663 Ti
   0.7612200000000001    0.3121970000000009    0.4261420833333330 Ti
   0.8739560000000002    0.9910120000000001    0.1254879166666667 O
   0.8739560000000002    0.9910120000000001    0.2921545833333333 O
   0.8739560000000002    0.9910120000000001    0.4588212499999999 O
   0.8036150000000000    0.7133380000000001    0.0770792499999998 O
   0.8036150000000000    0.7133380000000001    0.2437459166666665 O
   0.8036150000000000    0.7133380000000001    0.4104125833333329 O
   0.9485159999999990    0.2054380000000000    0.1521235833333333 O
   0.9485159999999990    0.2054380000000000    0.3187902499999998 O
   0.9485159999999990    0.2054380000000000    0.4854569166666667 O
   0.2662120000000000    0.5014220000000009    0.1230229166666665 O
   0.2662120000000000    0.5014220000000009    0.2896895833333332 O
   0.2662120000000000    0.5014220000000009    0.4563562499999998 O
   0.8931300000000003    0.5236930000000000    0.0320690833333333 O
   0.8931300000000003    0.5236930000000000    0.1987357499999999 O
   0.8931300000000003    0.5236930000000000    0.3654024166666666 O
   0.3974479999999990    0.6925810000000001    0.1195097499999999 O
   0.3974479999999990    0.6925810000000001    0.2861764166666667 O
   0.3974479999999990    0.6925810000000001    0.4528430833333333 O
   0.2208709999999990    0.2082220000000000    0.1408680833333334 O
   0.2208709999999990    0.2082220000000000    0.3075347500000000 O
   0.2208709999999990    0.2082220000000000    0.4742014166666667 O
   0.5392760000000002    0.7732650000000000    0.1437960833333332 O
   0.5392760000000002    0.7732650000000000    0.3104627499999998 O
   0.5392760000000002    0.7732650000000000    0.4771294166666665 O
   0.5830440000000002    0.3545419999999999    0.1291830833333333 O
   0.5830440000000002    0.3545419999999999    0.2958497500000000 O
   0.5830440000000002    0.3545419999999999    0.4625164166666665 O
   0.1244670000000000    0.4280370000000000    0.0991079166666665 O
   0.1244670000000000    0.4280370000000000    0.2657745833333330 O
   0.1244670000000000    0.4280370000000000    0.4324412499999997 O
   0.0680549999999990    0.6614070000000000    0.4874569166666666 O
   0.0680549999999990    0.6614070000000000    0.1541235833333332 O
   0.0680549999999990    0.6614070000000000    0.3207902499999998 O
   0.2100409999999990    0.8127910000000002    0.0984915833333333 O
   0.2100409999999990    0.8127910000000002    0.2651582499999999 O
   0.2100409999999990    0.8127910000000002    0.4318249166666666 O
   0.6015980000000001    0.2259720000000008    0.0887192499999998 O
   0.6015980000000001    0.2259720000000008    0.2553859166666665 O
   0.6015980000000001    0.2259720000000008    0.4220525833333331 O
   0.9369569999999992    0.8329630000000001    0.0971119166666665 O
   0.9369569999999992    0.8329630000000001    0.2637785833333331 O
   0.9369569999999992    0.8329630000000001    0.4304452499999997 O
   0.7478680000000001    0.3017190000000008    0.4981814166666665 O
   0.7478680000000001    0.3017190000000008    0.1648480833333332 O
   0.7478680000000001    0.3017190000000008    0.3315147499999999 O
   0.1286800000000000    0.6762770000000001    0.0510419166666666 O
   0.1286800000000000    0.6762770000000001    0.2177085833333333 O
   0.1286800000000000    0.6762770000000001    0.3843752499999999 O
   0.3732089999999991    0.0628869999999998    0.1201929166666665 O
   0.3732089999999991    0.0628869999999998    0.2868595833333332 O
   0.3732089999999991    0.0628869999999998    0.4535262499999999 O
   0.9236479999999990    0.9405430000000010    0.0189139166666665 O
   0.9236479999999990    0.9405430000000010    0.1855805833333332 O
   0.9236479999999990    0.9405430000000010    0.3522472499999998 O
   0.9223730000000000    0.1389929999999998    0.0413580833333333 O
   0.9223730000000000    0.1389929999999998    0.2080247500000000 O
   0.9223730000000000    0.1389929999999998    0.3746914166666667 O
   0.9020089999999999    0.2535110000000002    0.0885902499999998 O
   0.9020089999999999    0.2535110000000002    0.2552569166666664 O
   0.9020089999999999    0.2535110000000002    0.4219235833333330 O
   0.5288700000000001    0.4666590000000002    0.1512917499999998 O
   0.5288700000000001    0.4666590000000002    0.3179584166666665 O
   0.5288700000000001    0.4666590000000002    0.4846250833333331 O
   0.0372740000000000    0.6255510000000000    0.1006980833333334 O
   0.0372740000000000    0.6255510000000000    0.2673647500000000 O
   0.0372740000000000    0.6255510000000000    0.4340314166666666 O
   0.7350010000000000    0.9933010000000002    0.0821160833333333 O
   0.7350010000000000    0.9933010000000002    0.2487827500000000 O
   0.7350010000000000    0.9933010000000002    0.4154494166666665 O
   0.7777479999999998    0.7652890000000001    0.0140142499999998 O
   0.7777479999999998    0.7652890000000001    0.1806809166666665 O
   0.7777479999999998    0.7652890000000001    0.3473475833333330 O
   0.1128660000000000    0.3028190000000008    0.0377790833333332 O
   0.1128660000000000    0.3028190000000008    0.2044457499999999 O
   0.1128660000000000    0.3028190000000008    0.3711124166666666 O
   0.5646110000000001    0.9682820000000010    0.1438972499999998 O
   0.5646110000000001    0.9682820000000010    0.3105639166666664 O
   0.5646110000000001    0.9682820000000010    0.4772305833333330 O
   0.8562139999999991    0.5527519999999999    0.1449227500000000 O
   0.8562139999999991    0.5527519999999999    0.3115894166666666 O
   0.8562139999999991    0.5527519999999999    0.4782560833333334 O
   0.2876890000000000    0.7950530000000001    0.1451184166666665 O
   0.2876890000000000    0.7950530000000001    0.3117850833333332 O
   0.2876890000000000    0.7950530000000001    0.4784517499999998 O
   0.3119490000000000    0.7310080000000001    0.0696762500000000 O
   0.3119490000000000    0.7310080000000001    0.2363429166666667 O
   0.3119490000000000    0.7310080000000001    0.4030095833333333 O
   0.6368840000000000    0.4425230000000001    0.0714779166666667 O
   0.6368840000000000    0.4425230000000001    0.2381445833333334 O
   0.6368840000000000    0.4425230000000001    0.4048112500000000 O
   0.4617560000000002    0.0854470000000001    0.4975280833333333 O
   0.4617560000000002    0.0854470000000001    0.1641947500000000 O
   0.4617560000000002    0.0854470000000001    0.3308614166666666 O
   0.0542060000000000    0.0632090000000008    0.1392869166666665 O
   0.0542060000000000    0.0632090000000008    0.3059535833333332 O
   0.0542060000000000    0.0632090000000008    0.4726202499999999 O
   0.3509839999999990    0.8173380000000001    0.0147334166666665 O
   0.3509839999999990    0.8173380000000001    0.1814000833333332 O
   0.3509839999999990    0.8173380000000001    0.3480667499999998 O
   0.4720379999999992    0.9702880000000003    0.0961427499999998 O
   0.4720379999999992    0.9702880000000003    0.2628094166666665 O
   0.4720379999999992    0.9702880000000003    0.4294760833333331 O
   0.7638309999999990    0.7918760000000000    0.1348055833333333 O
   0.7638309999999990    0.7918760000000000    0.3014722500000000 O
   0.7638309999999990    0.7918760000000000    0.4681389166666666 O
   0.5759319999999999    0.1332180000000011    0.0352109166666665 O
   0.5759319999999999    0.1332180000000011    0.2018775833333331 O
   0.5759319999999999    0.1332180000000011    0.3685442499999997 O
   0.4226640000000000    0.2914620000000000    0.1075340833333332 O
   0.4226640000000000    0.2914620000000000    0.2742007499999998 O
   0.4226640000000000    0.2914620000000000    0.4408674166666665 O
   0.1914030000000000    0.9599750000000002    0.0192167499999999 O
   0.1914030000000000    0.9599750000000002    0.1858834166666666 O
   0.1914030000000000    0.9599750000000002    0.3525500833333333 O
   0.1594519999999990    0.5195680000000009    0.0395029166666663 O
   0.1594519999999990    0.5195680000000009    0.2061695833333330 O
   0.1594519999999990    0.5195680000000009    0.3728362499999996 O
   0.1384619999999999    0.1140920000000008    0.0246204166666664 O
   0.1384619999999999    0.1140920000000008    0.1912870833333331 O
   0.1384619999999999    0.1140920000000008    0.3579537499999997 O
   0.3836949999999998    0.2549929999999998    0.0045322499999998 O
   0.3836949999999998    0.2549929999999998    0.1711989166666665 O
   0.3836949999999998    0.2549929999999998    0.3378655833333332 O
   0.2678300000000000    0.5161840000000010    0.0004604166666665 O
   0.2678300000000000    0.5161840000000010    0.1671270833333331 O
   0.2678300000000000    0.5161840000000010    0.3337937499999998 O
   0.7179100000000000    0.0698520000000002    0.0165199166666666 O
   0.7179100000000000    0.0698520000000002    0.1831865833333333 O
   0.7179100000000000    0.0698520000000002    0.3498532499999999 O
   0.3878410000000001    0.4028710000000002    0.0507682499999999 O
   0.3878410000000001    0.4028710000000002    0.2174349166666666 O
   0.3878410000000001    0.4028710000000002    0.3841015833333333 O
   0.3703140000000000    0.9993610000000012    0.0473194166666663 O
   0.3703140000000000    0.9993610000000012    0.2139860833333330 O
   0.3703140000000000    0.9993610000000012    0.3806527499999998 O
   0.1724170000000000    0.2708770000000001    0.0859365833333332 O
   0.1724170000000000    0.2708770000000001    0.2526032499999998 O
   0.1724170000000000    0.2708770000000001    0.4192699166666665 O
   0.0296230000000000    0.0548199999999999    0.0885664166666667 O
   0.0296230000000000    0.0548199999999999    0.2552330833333332 O
   0.0296230000000000    0.0548199999999999    0.4218997499999999 O
   0.0428710000000000    0.8070050000000001    0.0024719166666667 O
   0.0428710000000000    0.8070050000000001    0.1691385833333333 O
   0.0428710000000000    0.8070050000000001    0.3358052499999999 O
   0.7001120000000000    0.1780890000000001    0.1302284166666665 O
   0.7001120000000000    0.1780890000000001    0.2968950833333331 O
   0.7001120000000000    0.1780890000000001    0.4635617499999998 O
   0.5427529999999994    0.6028380000000010    0.0858835833333331 O
   0.5427529999999994    0.6028380000000010    0.2525502499999998 O
   0.5427529999999994    0.6028380000000010    0.4192169166666664 O
   0.6677839999999992    0.7085150000000000    0.1115865833333333 O
   0.6677839999999992    0.7085150000000000    0.2782532500000000 O
   0.6677839999999992    0.7085150000000000    0.4449199166666666 O
   0.5019669999999992    0.2638999999999998    0.0446634166666667 O
   0.5019669999999992    0.2638999999999998    0.2113300833333334 O
   0.5019669999999992    0.2638999999999998    0.3779967499999999 O
   0.5481920000000000    0.8703910000000000    0.0735457500000000 O
   0.5481920000000000    0.8703910000000000    0.2402124166666666 O
   0.5481920000000000    0.8703910000000000    0.4068790833333333 O
   0.5340460000000001    0.6660159999999999    0.0309779166666665 O
   0.5340460000000001    0.6660159999999999    0.1976445833333332 O
   0.5340460000000001    0.6660159999999999    0.3643112499999999 O
   0.3606370000000000    0.5156370000000000    0.0769467500000000 O
   0.3606370000000000    0.5156370000000000    0.2436134166666667 O
   0.3606370000000000    0.5156370000000000    0.4102800833333333 O
   0.7773439999999990    0.3032550000000002    0.0394960833333333 O
   0.7773439999999990    0.3032550000000002    0.2061627500000000 O
   0.7773439999999990    0.3032550000000002    0.3728294166666666 O
   0.2641879999999999    0.1172580000000010    0.0624039166666665 O
   0.2641879999999999    0.1172580000000010    0.2290705833333332 O
   0.2641879999999999    0.1172580000000010    0.3957372499999997 O
   0.8271069999999990    0.3857580000000001    0.1059635833333333 O
   0.8271069999999990    0.3857580000000001    0.2726302499999999 O
   0.8271069999999990    0.3857580000000001    0.4392969166666667 O
   0.6517999999999999    0.5210360000000001    0.0189219166666666 O
   0.6517999999999999    0.5210360000000001    0.1855885833333333 O
   0.6517999999999999    0.5210360000000001    0.3522552500000000 O
   0.5605660000000001    0.8361070000000010    0.0404729166666663 O
   0.5605660000000001    0.8361070000000010    0.2071395833333330 O
   0.5605660000000001    0.8361070000000010    0.3738062499999997 O
