Ti90 O180
1.0
  10.7847349425586163    0.0000000000000000    0.0060328200944446
  -1.2247047225377732   10.4583487854001529    9.3482210382165096
   0.0000000000000000    0.0000000000000000   62.9170570674836966
Ti O
90 180
direct
   0.3479379999999991    0.8204740000000001    0.4383562500000001 Ti
   0.3479379999999991    0.8204740000000001    0.1050229166666668 Ti
   0.3479379999999991    0.8204740000000001    0.2716895833333335 Ti
   0.1008690000000000    0.1441720000000008    0.4080219166666667 Ti
   0.1008690000000000    0.1441720000000008    0.0746885833333333 Ti
   0.1008690000000000    0.1441720000000008    0.2413552499999999 Ti
   0.8065249999999994    0.4774350000000001    0.3718387500000001 Ti
   0.8065249999999994    0.4774350000000001    0.0385054166666668 Ti
   0.8065249999999994    0.4774350000000001    0.2051720833333334 Ti
   0.7909490000000001    0.2465539999999999    0.0030305833333334 Ti
   0.7909490000000001    0.2465539999999999    0.1696972500000002 Ti
   0.7909490000000001    0.2465539999999999    0.3363639166666669 Ti
   0.4398120000000000    0.7044890000000010    0.4057284166666666 Ti
   0.4398120000000000    0.7044890000000010    0.0723950833333332 Ti
   0.4398120000000000    0.7044890000000010    0.2390617499999999 Ti
   0.1631409999999990    0.5778510000000001    0.4487349166666668 Ti
   0.1631409999999990    0.5778510000000001    0.1154015833333334 Ti
   0.1631409999999990    0.5778510000000001    0.2820682500000000 Ti
   0.5602509999999991    0.0046750000000008    0.3873730833333334 Ti
   0.5602509999999991    0.0046750000000008    0.0540397500000000 Ti
   0.5602509999999991    0.0046750000000008    0.2207064166666667 Ti
   0.5211030000000000    0.4422479999999999    0.4506964166666668 Ti
   0.5211030000000000    0.4422479999999999    0.1173630833333335 Ti
   0.5211030000000000    0.4422479999999999    0.2840297500000002 Ti
   0.5445340000000000    0.3619320000000000    0.4109909166666667 Ti
   0.5445340000000000    0.3619320000000000    0.0776575833333332 Ti
   0.5445340000000000    0.3619320000000000    0.2443242499999999 Ti
   0.3685410000000002    0.5153020000000010    0.0008774166666664 Ti
   0.3685410000000002    0.5153020000000010    0.1675440833333331 Ti
   0.3685410000000002    0.5153020000000010    0.3342107499999999 Ti
   0.0395639999999990    0.6267690000000000    0.3779362500000001 Ti
   0.0395639999999990    0.6267690000000000    0.0446029166666667 Ti
   0.0395639999999990    0.6267690000000000    0.2112695833333334 Ti
   0.4267149999999991    0.1029350000000001    0.4171499166666668 Ti
   0.4267149999999991    0.1029350000000001    0.0838165833333333 Ti
   0.4267149999999991    0.1029350000000001    0.2504832500000000 Ti
   0.4301250000000000    0.9143660000000000    0.4920457500000000 Ti
   0.4301250000000000    0.9143660000000000    0.1587124166666667 Ti
   0.4301250000000000    0.9143660000000000    0.3253790833333333 Ti
   0.8723019999999996    0.9280300000000002    0.4622370833333335 Ti
   0.8723019999999996    0.9280300000000002    0.1289037500000001 Ti
   0.8723019999999996    0.9280300000000002    0.2955704166666666 Ti
   0.1865880000000000    0.8336970000000010    0.3764842499999997 Ti
   0.1865880000000000    0.8336970000000010    0.0431509166666665 Ti
   0.1865880000000000    0.8336970000000010    0.2098175833333331 Ti
   0.6539610000000002    0.6951250000000000    0.3635370833333333 Ti
   0.6539610000000002    0.6951250000000000    0.0302037500000000 Ti
   0.6539610000000002    0.6951250000000000    0.1968704166666667 Ti
   0.3001759999999999    0.1249779999999997    0.3661765833333335 Ti
   0.3001759999999999    0.1249779999999997    0.0328432500000002 Ti
   0.3001759999999999    0.1249779999999997    0.1995099166666668 Ti
   0.2299519999999999    0.7013280000000000    0.4952607500000001 Ti
   0.2299519999999999    0.7013280000000000    0.1619274166666669 Ti
   0.2299519999999999    0.7013280000000000    0.3285940833333335 Ti
   0.2223479999999999    0.3955090000000000    0.4009242500000001 Ti
   0.2223479999999999    0.3955090000000000    0.0675909166666668 Ti
   0.2223479999999999    0.3955090000000000    0.2342575833333334 Ti
   0.5601389999999993    0.3160910000000000    0.3537537500000001 Ti
   0.5601389999999993    0.3160910000000000    0.0204204166666668 Ti
   0.5601389999999993    0.3160910000000000    0.1870870833333334 Ti
   0.0458439999999990    0.0765540000000000    0.3594187500000001 Ti
   0.0458439999999990    0.0765540000000000    0.0260854166666668 Ti
   0.0458439999999990    0.0765540000000000    0.1927520833333335 Ti
   0.7670669999999988    0.1698310000000008    0.3969847500000000 Ti
   0.7670669999999988    0.1698310000000008    0.0636514166666667 Ti
   0.7670669999999988    0.1698310000000008    0.2303180833333333 Ti
   0.0141669999999990    0.1413960000000010    0.4606844166666666 Ti
   0.0141669999999990    0.1413960000000010    0.1273510833333333 Ti
   0.0141669999999990    0.1413960000000010    0.2940177500000000 Ti
   0.9002000000000000    0.6815009999999999    0.4631500833333335 Ti
   0.9002000000000000    0.6815009999999999    0.1298167500000002 Ti
   0.9002000000000000    0.6815009999999999    0.2964834166666669 Ti
   0.9040300000000002    0.8948880000000002    0.3550340833333334 Ti
   0.9040300000000002    0.8948880000000002    0.0217007500000000 Ti
   0.9040300000000002    0.8948880000000002    0.1883674166666668 Ti
   0.2487680000000000    0.3399710000000001    0.4588952500000001 Ti
   0.2487680000000000    0.3399710000000001    0.1255619166666667 Ti
   0.2487680000000000    0.3399710000000001    0.2922285833333333 Ti
   0.6409000000000002    0.7353340000000003    0.4358389166666668 Ti
   0.6409000000000002    0.7353340000000003    0.1025055833333333 Ti
   0.6409000000000002    0.7353340000000003    0.2691722500000001 Ti
   0.6138279999999990    0.8367120000000000    0.4661499166666667 Ti
   0.6138279999999990    0.8367120000000000    0.1328165833333335 Ti
   0.6138279999999990    0.8367120000000000    0.2994832500000001 Ti
   0.5144870000000001    0.1248010000000002    0.4851935833333334 Ti
   0.5144870000000001    0.1248010000000002    0.1518602500000001 Ti
   0.5144870000000001    0.1248010000000002    0.3185269166666668 Ti
   0.7612200000000001    0.3121970000000009    0.4506060833333332 Ti
   0.7612200000000001    0.3121970000000009    0.1172727499999998 Ti
   0.7612200000000001    0.3121970000000009    0.2839394166666666 Ti
   0.8739560000000002    0.9910120000000001    0.4832852500000001 O
   0.8739560000000002    0.9910120000000001    0.1499519166666668 O
   0.8739560000000002    0.9910120000000001    0.3166185833333334 O
   0.8036150000000000    0.7133380000000001    0.4348765833333332 O
   0.8036150000000000    0.7133380000000001    0.1015432499999999 O
   0.8036150000000000    0.7133380000000001    0.2682099166666664 O
   0.9485159999999990    0.2054380000000000    0.0099209166666668 O
   0.9485159999999990    0.2054380000000000    0.1765875833333333 O
   0.9485159999999990    0.2054380000000000    0.3432542500000002 O
   0.2662120000000000    0.5014220000000009    0.4808202499999999 O
   0.2662120000000000    0.5014220000000009    0.1474869166666667 O
   0.2662120000000000    0.5014220000000009    0.3141535833333333 O
   0.8931300000000003    0.5236930000000000    0.3898664166666668 O
   0.8931300000000003    0.5236930000000000    0.0565330833333334 O
   0.8931300000000003    0.5236930000000000    0.2231997500000001 O
   0.3974479999999990    0.6925810000000001    0.4773070833333334 O
   0.3974479999999990    0.6925810000000001    0.1439737500000002 O
   0.3974479999999990    0.6925810000000001    0.3106404166666668 O
   0.2208709999999990    0.2082220000000000    0.4986654166666669 O
   0.2208709999999990    0.2082220000000000    0.1653320833333335 O
   0.2208709999999990    0.2082220000000000    0.3319987500000002 O
   0.5392760000000002    0.7732650000000000    0.0015934166666667 O
   0.5392760000000002    0.7732650000000000    0.1682600833333333 O
   0.5392760000000002    0.7732650000000000    0.3349267500000001 O
   0.5830440000000002    0.3545419999999999    0.4869804166666668 O
   0.5830440000000002    0.3545419999999999    0.1536470833333335 O
   0.5830440000000002    0.3545419999999999    0.3203137500000000 O
   0.1244670000000000    0.4280370000000000    0.4569052499999999 O
   0.1244670000000000    0.4280370000000000    0.1235719166666665 O
   0.1244670000000000    0.4280370000000000    0.2902385833333332 O
   0.0680549999999990    0.6614070000000000    0.3452542500000001 O
   0.0680549999999990    0.6614070000000000    0.0119209166666667 O
   0.0680549999999990    0.6614070000000000    0.1785875833333333 O
   0.2100409999999990    0.8127910000000002    0.4562889166666667 O
   0.2100409999999990    0.8127910000000002    0.1229555833333334 O
   0.2100409999999990    0.8127910000000002    0.2896222500000001 O
   0.6015980000000001    0.2259720000000008    0.4465165833333333 O
   0.6015980000000001    0.2259720000000008    0.1131832500000000 O
   0.6015980000000001    0.2259720000000008    0.2798499166666666 O
   0.9369569999999992    0.8329630000000001    0.4549092499999999 O
   0.9369569999999992    0.8329630000000001    0.1215759166666666 O
   0.9369569999999992    0.8329630000000001    0.2882425833333332 O
   0.7478680000000001    0.3017190000000008    0.3559787500000000 O
   0.7478680000000001    0.3017190000000008    0.0226454166666667 O
   0.7478680000000001    0.3017190000000008    0.1893120833333334 O
   0.1286800000000000    0.6762770000000001    0.4088392500000001 O
   0.1286800000000000    0.6762770000000001    0.0755059166666668 O
   0.1286800000000000    0.6762770000000001    0.2421725833333334 O
   0.3732089999999991    0.0628869999999998    0.4779902500000000 O
   0.3732089999999991    0.0628869999999998    0.1446569166666667 O
   0.3732089999999991    0.0628869999999998    0.3113235833333333 O
   0.9236479999999990    0.9405430000000010    0.3767112500000001 O
   0.9236479999999990    0.9405430000000010    0.0433779166666667 O
   0.9236479999999990    0.9405430000000010    0.2100445833333333 O
   0.9223730000000000    0.1389929999999998    0.3991554166666668 O
   0.9223730000000000    0.1389929999999998    0.0658220833333335 O
   0.9223730000000000    0.1389929999999998    0.2324887500000002 O
   0.9020089999999999    0.2535110000000002    0.4463875833333333 O
   0.9020089999999999    0.2535110000000002    0.1130542499999999 O
   0.9020089999999999    0.2535110000000002    0.2797209166666665 O
   0.5288700000000001    0.4666590000000002    0.0090890833333333 O
   0.5288700000000001    0.4666590000000002    0.1757557500000000 O
   0.5288700000000001    0.4666590000000002    0.3424224166666666 O
   0.0372740000000000    0.6255510000000000    0.4584954166666668 O
   0.0372740000000000    0.6255510000000000    0.1251620833333335 O
   0.0372740000000000    0.6255510000000000    0.2918287500000001 O
   0.7350010000000000    0.9933010000000002    0.4399134166666668 O
   0.7350010000000000    0.9933010000000002    0.1065800833333334 O
   0.7350010000000000    0.9933010000000002    0.2732467500000000 O
   0.7777479999999998    0.7652890000000001    0.3718115833333333 O
   0.7777479999999998    0.7652890000000001    0.0384782500000000 O
   0.7777479999999998    0.7652890000000001    0.2051449166666665 O
   0.1128660000000000    0.3028190000000008    0.3955764166666667 O
   0.1128660000000000    0.3028190000000008    0.0622430833333334 O
   0.1128660000000000    0.3028190000000008    0.2289097500000001 O
   0.5646110000000001    0.9682820000000010    0.0016945833333333 O
   0.5646110000000001    0.9682820000000010    0.1683612499999999 O
   0.5646110000000001    0.9682820000000010    0.3350279166666665 O
   0.8562139999999991    0.5527519999999999    0.0027200833333334 O
   0.8562139999999991    0.5527519999999999    0.1693867500000001 O
   0.8562139999999991    0.5527519999999999    0.3360534166666669 O
   0.2876890000000000    0.7950530000000001    0.0029157500000000 O
   0.2876890000000000    0.7950530000000001    0.1695824166666667 O
   0.2876890000000000    0.7950530000000001    0.3362490833333334 O
   0.3119490000000000    0.7310080000000001    0.4274735833333335 O
   0.3119490000000000    0.7310080000000001    0.0941402500000002 O
   0.3119490000000000    0.7310080000000001    0.2608069166666668 O
   0.6368840000000000    0.4425230000000001    0.4292752500000001 O
   0.6368840000000000    0.4425230000000001    0.0959419166666668 O
   0.6368840000000000    0.4425230000000001    0.2626085833333335 O
   0.4617560000000002    0.0854470000000001    0.3553254166666668 O
   0.4617560000000002    0.0854470000000001    0.0219920833333335 O
   0.4617560000000002    0.0854470000000001    0.1886587500000001 O
   0.0542060000000000    0.0632090000000008    0.4970842500000000 O
   0.0542060000000000    0.0632090000000008    0.1637509166666667 O
   0.0542060000000000    0.0632090000000008    0.3304175833333334 O
   0.3509839999999990    0.8173380000000001    0.3725307500000000 O
   0.3509839999999990    0.8173380000000001    0.0391974166666667 O
   0.3509839999999990    0.8173380000000001    0.2058640833333333 O
   0.4720379999999992    0.9702880000000003    0.4539400833333333 O
   0.4720379999999992    0.9702880000000003    0.1206067500000000 O
   0.4720379999999992    0.9702880000000003    0.2872734166666666 O
   0.7638309999999990    0.7918760000000000    0.4926029166666668 O
   0.7638309999999990    0.7918760000000000    0.1592695833333335 O
   0.7638309999999990    0.7918760000000000    0.3259362500000001 O
   0.5759319999999999    0.1332180000000011    0.3930082499999999 O
   0.5759319999999999    0.1332180000000011    0.0596749166666666 O
   0.5759319999999999    0.1332180000000011    0.2263415833333332 O
   0.4226640000000000    0.2914620000000000    0.4653314166666667 O
   0.4226640000000000    0.2914620000000000    0.1319980833333333 O
   0.4226640000000000    0.2914620000000000    0.2986647499999999 O
   0.1914030000000000    0.9599750000000002    0.3770140833333334 O
   0.1914030000000000    0.9599750000000002    0.0436807500000001 O
   0.1914030000000000    0.9599750000000002    0.2103474166666668 O
   0.1594519999999990    0.5195680000000009    0.3973002499999998 O
   0.1594519999999990    0.5195680000000009    0.0639669166666665 O
   0.1594519999999990    0.5195680000000009    0.2306335833333331 O
   0.1384619999999999    0.1140920000000008    0.3824177499999998 O
   0.1384619999999999    0.1140920000000008    0.0490844166666665 O
   0.1384619999999999    0.1140920000000008    0.2157510833333332 O
   0.3836949999999998    0.2549929999999998    0.3623295833333333 O
   0.3836949999999998    0.2549929999999998    0.0289962500000000 O
   0.3836949999999998    0.2549929999999998    0.1956629166666667 O
   0.2678300000000000    0.5161840000000010    0.3582577499999999 O
   0.2678300000000000    0.5161840000000010    0.0249244166666666 O
   0.2678300000000000    0.5161840000000010    0.1915910833333333 O
   0.7179100000000000    0.0698520000000002    0.3743172500000002 O
   0.7179100000000000    0.0698520000000002    0.0409839166666668 O
   0.7179100000000000    0.0698520000000002    0.2076505833333334 O
   0.3878410000000001    0.4028710000000002    0.4085655833333334 O
   0.3878410000000001    0.4028710000000002    0.0752322500000001 O
   0.3878410000000001    0.4028710000000002    0.2418989166666668 O
   0.3703140000000000    0.9993610000000012    0.4051167499999998 O
   0.3703140000000000    0.9993610000000012    0.0717834166666664 O
   0.3703140000000000    0.9993610000000012    0.2384500833333333 O
   0.1724170000000000    0.2708770000000001    0.4437339166666666 O
   0.1724170000000000    0.2708770000000001    0.1104005833333333 O
   0.1724170000000000    0.2708770000000001    0.2770672500000000 O
   0.0296230000000000    0.0548199999999999    0.4463637500000002 O
   0.0296230000000000    0.0548199999999999    0.1130304166666667 O
   0.0296230000000000    0.0548199999999999    0.2796970833333333 O
   0.0428710000000000    0.8070050000000001    0.3602692500000002 O
   0.0428710000000000    0.8070050000000001    0.0269359166666668 O
   0.0428710000000000    0.8070050000000001    0.1936025833333334 O
   0.7001120000000000    0.1780890000000001    0.4880257500000000 O
   0.7001120000000000    0.1780890000000001    0.1546924166666666 O
   0.7001120000000000    0.1780890000000001    0.3213590833333333 O
   0.5427529999999994    0.6028380000000010    0.4436809166666666 O
   0.5427529999999994    0.6028380000000010    0.1103475833333332 O
   0.5427529999999994    0.6028380000000010    0.2770142499999999 O
   0.6677839999999992    0.7085150000000000    0.4693839166666668 O
   0.6677839999999992    0.7085150000000000    0.1360505833333334 O
   0.6677839999999992    0.7085150000000000    0.3027172500000000 O
   0.5019669999999992    0.2638999999999998    0.4024607500000001 O
   0.5019669999999992    0.2638999999999998    0.0691274166666668 O
   0.5019669999999992    0.2638999999999998    0.2357940833333334 O
   0.5481920000000000    0.8703910000000000    0.4313430833333334 O
   0.5481920000000000    0.8703910000000000    0.0980097500000001 O
   0.5481920000000000    0.8703910000000000    0.2646764166666669 O
   0.5340460000000001    0.6660159999999999    0.3887752500000000 O
   0.5340460000000001    0.6660159999999999    0.0554419166666666 O
   0.5340460000000001    0.6660159999999999    0.2221085833333334 O
   0.3606370000000000    0.5156370000000000    0.4347440833333335 O
   0.3606370000000000    0.5156370000000000    0.1014107500000002 O
   0.3606370000000000    0.5156370000000000    0.2680774166666667 O
   0.7773439999999990    0.3032550000000002    0.3972934166666667 O
   0.7773439999999990    0.3032550000000002    0.0639600833333334 O
   0.7773439999999990    0.3032550000000002    0.2306267500000001 O
   0.2641879999999999    0.1172580000000010    0.4202012500000000 O
   0.2641879999999999    0.1172580000000010    0.0868679166666666 O
   0.2641879999999999    0.1172580000000010    0.2535345833333332 O
   0.8271069999999990    0.3857580000000001    0.4637609166666667 O
   0.8271069999999990    0.3857580000000001    0.1304275833333334 O
   0.8271069999999990    0.3857580000000001    0.2970942500000002 O
   0.6517999999999999    0.5210360000000001    0.3767192500000001 O
   0.6517999999999999    0.5210360000000001    0.0433859166666667 O
   0.6517999999999999    0.5210360000000001    0.2100525833333335 O
   0.5605660000000001    0.8361070000000010    0.3982702499999998 O
   0.5605660000000001    0.8361070000000010    0.0649369166666665 O
   0.5605660000000001    0.8361070000000010    0.2316035833333332 O
