Ti90 O180
1.0
  10.7847349425586163    0.0000000000000000    0.0060328200944446
  -1.2247047225377732   10.4583487854001529    9.3482210382165096
   0.0000000000000000    0.0000000000000000   62.9170570674836966
Ti O
90 180
direct
   0.3479379999999991    0.8204740000000001    0.0527597500000002 Ti
   0.3479379999999991    0.8204740000000001    0.2194264166666669 Ti
   0.3479379999999991    0.8204740000000001    0.3860930833333335 Ti
   0.1008690000000000    0.1441720000000008    0.0224254166666667 Ti
   0.1008690000000000    0.1441720000000008    0.1890920833333333 Ti
   0.1008690000000000    0.1441720000000008    0.3557587500000000 Ti
   0.8065249999999994    0.4774350000000001    0.4862422500000002 Ti
   0.8065249999999994    0.4774350000000001    0.1529089166666668 Ti
   0.8065249999999994    0.4774350000000001    0.3195755833333335 Ti
   0.7909490000000001    0.2465539999999999    0.1174340833333335 Ti
   0.7909490000000001    0.2465539999999999    0.2841007500000003 Ti
   0.7909490000000001    0.2465539999999999    0.4507674166666669 Ti
   0.4398120000000000    0.7044890000000010    0.0201319166666667 Ti
   0.4398120000000000    0.7044890000000010    0.1867985833333333 Ti
   0.4398120000000000    0.7044890000000010    0.3534652500000000 Ti
   0.1631409999999990    0.5778510000000001    0.0631384166666669 Ti
   0.1631409999999990    0.5778510000000001    0.2298050833333335 Ti
   0.1631409999999990    0.5778510000000001    0.3964717500000001 Ti
   0.5602509999999991    0.0046750000000008    0.0017765833333334 Ti
   0.5602509999999991    0.0046750000000008    0.1684432500000001 Ti
   0.5602509999999991    0.0046750000000008    0.3351099166666668 Ti
   0.5211030000000000    0.4422479999999999    0.0650999166666669 Ti
   0.5211030000000000    0.4422479999999999    0.2317665833333336 Ti
   0.5211030000000000    0.4422479999999999    0.3984332500000002 Ti
   0.5445340000000000    0.3619320000000000    0.0253944166666667 Ti
   0.5445340000000000    0.3619320000000000    0.1920610833333333 Ti
   0.5445340000000000    0.3619320000000000    0.3587277500000000 Ti
   0.3685410000000002    0.5153020000000010    0.1152809166666665 Ti
   0.3685410000000002    0.5153020000000010    0.2819475833333331 Ti
   0.3685410000000002    0.5153020000000010    0.4486142499999999 Ti
   0.0395639999999990    0.6267690000000000    0.4923397500000002 Ti
   0.0395639999999990    0.6267690000000000    0.1590064166666668 Ti
   0.0395639999999990    0.6267690000000000    0.3256730833333334 Ti
   0.4267149999999991    0.1029350000000001    0.0315534166666668 Ti
   0.4267149999999991    0.1029350000000001    0.1982200833333334 Ti
   0.4267149999999991    0.1029350000000001    0.3648867500000001 Ti
   0.4301250000000000    0.9143660000000000    0.1064492500000001 Ti
   0.4301250000000000    0.9143660000000000    0.2731159166666667 Ti
   0.4301250000000000    0.9143660000000000    0.4397825833333334 Ti
   0.8723019999999996    0.9280300000000002    0.0766405833333335 Ti
   0.8723019999999996    0.9280300000000002    0.2433072500000001 Ti
   0.8723019999999996    0.9280300000000002    0.4099739166666667 Ti
   0.1865880000000000    0.8336970000000010    0.4908877499999998 Ti
   0.1865880000000000    0.8336970000000010    0.1575544166666665 Ti
   0.1865880000000000    0.8336970000000010    0.3242210833333332 Ti
   0.6539610000000002    0.6951250000000000    0.4779405833333333 Ti
   0.6539610000000002    0.6951250000000000    0.1446072500000001 Ti
   0.6539610000000002    0.6951250000000000    0.3112739166666668 Ti
   0.3001759999999999    0.1249779999999997    0.4805800833333336 Ti
   0.3001759999999999    0.1249779999999997    0.1472467500000003 Ti
   0.3001759999999999    0.1249779999999997    0.3139134166666669 Ti
   0.2299519999999999    0.7013280000000000    0.1096642500000002 Ti
   0.2299519999999999    0.7013280000000000    0.2763309166666669 Ti
   0.2299519999999999    0.7013280000000000    0.4429975833333336 Ti
   0.2223479999999999    0.3955090000000000    0.0153277500000002 Ti
   0.2223479999999999    0.3955090000000000    0.1819944166666668 Ti
   0.2223479999999999    0.3955090000000000    0.3486610833333335 Ti
   0.5601389999999993    0.3160910000000000    0.4681572500000002 Ti
   0.5601389999999993    0.3160910000000000    0.1348239166666669 Ti
   0.5601389999999993    0.3160910000000000    0.3014905833333335 Ti
   0.0458439999999990    0.0765540000000000    0.4738222500000002 Ti
   0.0458439999999990    0.0765540000000000    0.1404889166666669 Ti
   0.0458439999999990    0.0765540000000000    0.3071555833333335 Ti
   0.7670669999999988    0.1698310000000008    0.0113882500000001 Ti
   0.7670669999999988    0.1698310000000008    0.1780549166666667 Ti
   0.7670669999999988    0.1698310000000008    0.3447215833333334 Ti
   0.0141669999999990    0.1413960000000010    0.0750879166666667 Ti
   0.0141669999999990    0.1413960000000010    0.2417545833333334 Ti
   0.0141669999999990    0.1413960000000010    0.4084212500000000 Ti
   0.9002000000000000    0.6815009999999999    0.0775535833333336 Ti
   0.9002000000000000    0.6815009999999999    0.2442202500000003 Ti
   0.9002000000000000    0.6815009999999999    0.4108869166666669 Ti
   0.9040300000000002    0.8948880000000002    0.4694375833333335 Ti
   0.9040300000000002    0.8948880000000002    0.1361042500000001 Ti
   0.9040300000000002    0.8948880000000002    0.3027709166666668 Ti
   0.2487680000000000    0.3399710000000001    0.0732987500000002 Ti
   0.2487680000000000    0.3399710000000001    0.2399654166666668 Ti
   0.2487680000000000    0.3399710000000001    0.4066320833333334 Ti
   0.6409000000000002    0.7353340000000003    0.0502424166666669 Ti
   0.6409000000000002    0.7353340000000003    0.2169090833333334 Ti
   0.6409000000000002    0.7353340000000003    0.3835757500000002 Ti
   0.6138279999999990    0.8367120000000000    0.0805534166666668 Ti
   0.6138279999999990    0.8367120000000000    0.2472200833333336 Ti
   0.6138279999999990    0.8367120000000000    0.4138867500000002 Ti
   0.5144870000000001    0.1248010000000002    0.0995970833333335 Ti
   0.5144870000000001    0.1248010000000002    0.2662637500000001 Ti
   0.5144870000000001    0.1248010000000002    0.4329304166666668 Ti
   0.7612200000000001    0.3121970000000009    0.0650095833333332 Ti
   0.7612200000000001    0.3121970000000009    0.2316762499999999 Ti
   0.7612200000000001    0.3121970000000009    0.3983429166666666 Ti
   0.8739560000000002    0.9910120000000001    0.0976887500000002 O
   0.8739560000000002    0.9910120000000001    0.2643554166666668 O
   0.8739560000000002    0.9910120000000001    0.4310220833333335 O
   0.8036150000000000    0.7133380000000001    0.0492800833333333 O
   0.8036150000000000    0.7133380000000001    0.2159467500000000 O
   0.8036150000000000    0.7133380000000001    0.3826134166666665 O
   0.9485159999999990    0.2054380000000000    0.1243244166666669 O
   0.9485159999999990    0.2054380000000000    0.2909910833333334 O
   0.9485159999999990    0.2054380000000000    0.4576577500000003 O
   0.2662120000000000    0.5014220000000009    0.0952237500000000 O
   0.2662120000000000    0.5014220000000009    0.2618904166666667 O
   0.2662120000000000    0.5014220000000009    0.4285570833333334 O
   0.8931300000000003    0.5236930000000000    0.0042699166666669 O
   0.8931300000000003    0.5236930000000000    0.1709365833333335 O
   0.8931300000000003    0.5236930000000000    0.3376032500000002 O
   0.3974479999999990    0.6925810000000001    0.0917105833333335 O
   0.3974479999999990    0.6925810000000001    0.2583772500000003 O
   0.3974479999999990    0.6925810000000001    0.4250439166666669 O
   0.2208709999999990    0.2082220000000000    0.1130689166666669 O
   0.2208709999999990    0.2082220000000000    0.2797355833333335 O
   0.2208709999999990    0.2082220000000000    0.4464022500000003 O
   0.5392760000000002    0.7732650000000000    0.1159969166666667 O
   0.5392760000000002    0.7732650000000000    0.2826635833333334 O
   0.5392760000000002    0.7732650000000000    0.4493302500000001 O
   0.5830440000000002    0.3545419999999999    0.1013839166666669 O
   0.5830440000000002    0.3545419999999999    0.2680505833333335 O
   0.5830440000000002    0.3545419999999999    0.4347172500000001 O
   0.1244670000000000    0.4280370000000000    0.0713087500000000 O
   0.1244670000000000    0.4280370000000000    0.2379754166666666 O
   0.1244670000000000    0.4280370000000000    0.4046420833333332 O
   0.0680549999999990    0.6614070000000000    0.4596577500000002 O
   0.0680549999999990    0.6614070000000000    0.1263244166666668 O
   0.0680549999999990    0.6614070000000000    0.2929910833333334 O
   0.2100409999999990    0.8127910000000002    0.0706924166666668 O
   0.2100409999999990    0.8127910000000002    0.2373590833333335 O
   0.2100409999999990    0.8127910000000002    0.4040257500000001 O
   0.6015980000000001    0.2259720000000008    0.0609200833333334 O
   0.6015980000000001    0.2259720000000008    0.2275867500000001 O
   0.6015980000000001    0.2259720000000008    0.3942534166666667 O
   0.9369569999999992    0.8329630000000001    0.0693127500000000 O
   0.9369569999999992    0.8329630000000001    0.2359794166666667 O
   0.9369569999999992    0.8329630000000001    0.4026460833333333 O
   0.7478680000000001    0.3017190000000008    0.4703822500000001 O
   0.7478680000000001    0.3017190000000008    0.1370489166666667 O
   0.7478680000000001    0.3017190000000008    0.3037155833333334 O
   0.1286800000000000    0.6762770000000001    0.0232427500000002 O
   0.1286800000000000    0.6762770000000001    0.1899094166666669 O
   0.1286800000000000    0.6762770000000001    0.3565760833333335 O
   0.3732089999999991    0.0628869999999998    0.0923937500000001 O
   0.3732089999999991    0.0628869999999998    0.2590604166666667 O
   0.3732089999999991    0.0628869999999998    0.4257270833333334 O
   0.9236479999999990    0.9405430000000010    0.4911147500000001 O
   0.9236479999999990    0.9405430000000010    0.1577814166666668 O
   0.9236479999999990    0.9405430000000010    0.3244480833333334 O
   0.9223730000000000    0.1389929999999998    0.0135589166666669 O
   0.9223730000000000    0.1389929999999998    0.1802255833333335 O
   0.9223730000000000    0.1389929999999998    0.3468922500000002 O
   0.9020089999999999    0.2535110000000002    0.0607910833333334 O
   0.9020089999999999    0.2535110000000002    0.2274577500000000 O
   0.9020089999999999    0.2535110000000002    0.3941244166666666 O
   0.5288700000000001    0.4666590000000002    0.1234925833333334 O
   0.5288700000000001    0.4666590000000002    0.2901592500000000 O
   0.5288700000000001    0.4666590000000002    0.4568259166666667 O
   0.0372740000000000    0.6255510000000000    0.0728989166666669 O
   0.0372740000000000    0.6255510000000000    0.2395655833333336 O
   0.0372740000000000    0.6255510000000000    0.4062322500000002 O
   0.7350010000000000    0.9933010000000002    0.0543169166666669 O
   0.7350010000000000    0.9933010000000002    0.2209835833333335 O
   0.7350010000000000    0.9933010000000002    0.3876502500000000 O
   0.7777479999999998    0.7652890000000001    0.4862150833333334 O
   0.7777479999999998    0.7652890000000001    0.1528817500000000 O
   0.7777479999999998    0.7652890000000001    0.3195484166666666 O
   0.1128660000000000    0.3028190000000008    0.0099799166666668 O
   0.1128660000000000    0.3028190000000008    0.1766465833333334 O
   0.1128660000000000    0.3028190000000008    0.3433132500000001 O
   0.5646110000000001    0.9682820000000010    0.1160980833333334 O
   0.5646110000000001    0.9682820000000010    0.2827647500000000 O
   0.5646110000000001    0.9682820000000010    0.4494314166666666 O
   0.8562139999999991    0.5527519999999999    0.1171235833333335 O
   0.8562139999999991    0.5527519999999999    0.2837902500000001 O
   0.8562139999999991    0.5527519999999999    0.4504569166666669 O
   0.2876890000000000    0.7950530000000001    0.1173192500000001 O
   0.2876890000000000    0.7950530000000001    0.2839859166666668 O
   0.2876890000000000    0.7950530000000001    0.4506525833333334 O
   0.3119490000000000    0.7310080000000001    0.0418770833333335 O
   0.3119490000000000    0.7310080000000001    0.2085437500000002 O
   0.3119490000000000    0.7310080000000001    0.3752104166666669 O
   0.6368840000000000    0.4425230000000001    0.0436787500000002 O
   0.6368840000000000    0.4425230000000001    0.2103454166666669 O
   0.6368840000000000    0.4425230000000001    0.3770120833333335 O
   0.4617560000000002    0.0854470000000001    0.4697289166666669 O
   0.4617560000000002    0.0854470000000001    0.1363955833333335 O
   0.4617560000000002    0.0854470000000001    0.3030622500000002 O
   0.0542060000000000    0.0632090000000008    0.1114877500000001 O
   0.0542060000000000    0.0632090000000008    0.2781544166666668 O
   0.0542060000000000    0.0632090000000008    0.4448210833333334 O
   0.3509839999999990    0.8173380000000001    0.4869342500000001 O
   0.3509839999999990    0.8173380000000001    0.1536009166666668 O
   0.3509839999999990    0.8173380000000001    0.3202675833333334 O
   0.4720379999999992    0.9702880000000003    0.0683435833333334 O
   0.4720379999999992    0.9702880000000003    0.2350102500000000 O
   0.4720379999999992    0.9702880000000003    0.4016769166666667 O
   0.7638309999999990    0.7918760000000000    0.1070064166666669 O
   0.7638309999999990    0.7918760000000000    0.2736730833333336 O
   0.7638309999999990    0.7918760000000000    0.4403397500000002 O
   0.5759319999999999    0.1332180000000011    0.0074117500000000 O
   0.5759319999999999    0.1332180000000011    0.1740784166666667 O
   0.5759319999999999    0.1332180000000011    0.3407450833333333 O
   0.4226640000000000    0.2914620000000000    0.0797349166666667 O
   0.4226640000000000    0.2914620000000000    0.2464015833333334 O
   0.4226640000000000    0.2914620000000000    0.4130682500000000 O
   0.1914030000000000    0.9599750000000002    0.4914175833333335 O
   0.1914030000000000    0.9599750000000002    0.1580842500000002 O
   0.1914030000000000    0.9599750000000002    0.3247509166666668 O
   0.1594519999999990    0.5195680000000009    0.0117037499999999 O
   0.1594519999999990    0.5195680000000009    0.1783704166666666 O
   0.1594519999999990    0.5195680000000009    0.3450370833333332 O
   0.1384619999999999    0.1140920000000008    0.4968212499999999 O
   0.1384619999999999    0.1140920000000008    0.1634879166666666 O
   0.1384619999999999    0.1140920000000008    0.3301545833333333 O
   0.3836949999999998    0.2549929999999998    0.4767330833333334 O
   0.3836949999999998    0.2549929999999998    0.1433997500000001 O
   0.3836949999999998    0.2549929999999998    0.3100664166666667 O
   0.2678300000000000    0.5161840000000010    0.4726612500000000 O
   0.2678300000000000    0.5161840000000010    0.1393279166666666 O
   0.2678300000000000    0.5161840000000010    0.3059945833333333 O
   0.7179100000000000    0.0698520000000002    0.4887207500000002 O
   0.7179100000000000    0.0698520000000002    0.1553874166666668 O
   0.7179100000000000    0.0698520000000002    0.3220540833333335 O
   0.3878410000000001    0.4028710000000002    0.0229690833333335 O
   0.3878410000000001    0.4028710000000002    0.1896357500000002 O
   0.3878410000000001    0.4028710000000002    0.3563024166666669 O
   0.3703140000000000    0.9993610000000012    0.0195202499999999 O
   0.3703140000000000    0.9993610000000012    0.1861869166666665 O
   0.3703140000000000    0.9993610000000012    0.3528535833333333 O
   0.1724170000000000    0.2708770000000001    0.0581374166666667 O
   0.1724170000000000    0.2708770000000001    0.2248040833333333 O
   0.1724170000000000    0.2708770000000001    0.3914707500000000 O
   0.0296230000000000    0.0548199999999999    0.0607672500000002 O
   0.0296230000000000    0.0548199999999999    0.2274339166666668 O
   0.0296230000000000    0.0548199999999999    0.3941005833333334 O
   0.0428710000000000    0.8070050000000001    0.4746727500000003 O
   0.0428710000000000    0.8070050000000001    0.1413394166666669 O
   0.0428710000000000    0.8070050000000001    0.3080060833333335 O
   0.7001120000000000    0.1780890000000001    0.1024292500000001 O
   0.7001120000000000    0.1780890000000001    0.2690959166666667 O
   0.7001120000000000    0.1780890000000001    0.4357625833333334 O
   0.5427529999999994    0.6028380000000010    0.0580844166666667 O
   0.5427529999999994    0.6028380000000010    0.2247510833333333 O
   0.5427529999999994    0.6028380000000010    0.3914177500000000 O
   0.6677839999999992    0.7085150000000000    0.0837874166666669 O
   0.6677839999999992    0.7085150000000000    0.2504540833333335 O
   0.6677839999999992    0.7085150000000000    0.4171207500000002 O
   0.5019669999999992    0.2638999999999998    0.0168642500000002 O
   0.5019669999999992    0.2638999999999998    0.1835309166666669 O
   0.5019669999999992    0.2638999999999998    0.3501975833333335 O
   0.5481920000000000    0.8703910000000000    0.0457465833333335 O
   0.5481920000000000    0.8703910000000000    0.2124132500000002 O
   0.5481920000000000    0.8703910000000000    0.3790799166666669 O
   0.5340460000000001    0.6660159999999999    0.0031787500000001 O
   0.5340460000000001    0.6660159999999999    0.1698454166666667 O
   0.5340460000000001    0.6660159999999999    0.3365120833333334 O
   0.3606370000000000    0.5156370000000000    0.0491475833333335 O
   0.3606370000000000    0.5156370000000000    0.2158142500000003 O
   0.3606370000000000    0.5156370000000000    0.3824809166666668 O
   0.7773439999999990    0.3032550000000002    0.0116969166666668 O
   0.7773439999999990    0.3032550000000002    0.1783635833333335 O
   0.7773439999999990    0.3032550000000002    0.3450302500000002 O
   0.2641879999999999    0.1172580000000010    0.0346047500000001 O
   0.2641879999999999    0.1172580000000010    0.2012714166666667 O
   0.2641879999999999    0.1172580000000010    0.3679380833333333 O
   0.8271069999999990    0.3857580000000001    0.0781644166666668 O
   0.8271069999999990    0.3857580000000001    0.2448310833333335 O
   0.8271069999999990    0.3857580000000001    0.4114977500000003 O
   0.6517999999999999    0.5210360000000001    0.4911227500000002 O
   0.6517999999999999    0.5210360000000001    0.1577894166666668 O
   0.6517999999999999    0.5210360000000001    0.3244560833333336 O
   0.5605660000000001    0.8361070000000010    0.0126737499999999 O
   0.5605660000000001    0.8361070000000010    0.1793404166666666 O
   0.5605660000000001    0.8361070000000010    0.3460070833333332 O
