Ti90 O180
1.0
  10.7847349425586163    0.0000000000000000    0.0060328200944446
  -1.2247047225377732   10.4583487854001529    9.3482210382165096
   0.0000000000000000    0.0000000000000000   62.9170570674836966
Ti O
90 180
direct
   0.3479379999999991    0.8204740000000001    0.0628380000000000 Ti
   0.3479379999999991    0.8204740000000001    0.2295046666666667 Ti
   0.3479379999999991    0.8204740000000001    0.3961713333333333 Ti
   0.1008690000000000    0.1441720000000008    0.0325036666666665 Ti
   0.1008690000000000    0.1441720000000008    0.1991703333333331 Ti
   0.1008690000000000    0.1441720000000008    0.3658369999999997 Ti
   0.8065249999999994    0.4774350000000001    0.4963204999999999 Ti
   0.8065249999999994    0.4774350000000001    0.1629871666666667 Ti
   0.8065249999999994    0.4774350000000001    0.3296538333333333 Ti
   0.7909490000000001    0.2465539999999999    0.1275123333333333 Ti
   0.7909490000000001    0.2465539999999999    0.2941790000000001 Ti
   0.7909490000000001    0.2465539999999999    0.4608456666666667 Ti
   0.4398120000000000    0.7044890000000010    0.0302101666666665 Ti
   0.4398120000000000    0.7044890000000010    0.1968768333333331 Ti
   0.4398120000000000    0.7044890000000010    0.3635434999999998 Ti
   0.1631409999999990    0.5778510000000001    0.0732166666666667 Ti
   0.1631409999999990    0.5778510000000001    0.2398833333333333 Ti
   0.1631409999999990    0.5778510000000001    0.4065500000000000 Ti
   0.5602509999999991    0.0046750000000008    0.0118548333333332 Ti
   0.5602509999999991    0.0046750000000008    0.1785214999999999 Ti
   0.5602509999999991    0.0046750000000008    0.3451881666666666 Ti
   0.5211030000000000    0.4422479999999999    0.0751781666666667 Ti
   0.5211030000000000    0.4422479999999999    0.2418448333333334 Ti
   0.5211030000000000    0.4422479999999999    0.4085115000000000 Ti
   0.5445340000000000    0.3619320000000000    0.0354726666666665 Ti
   0.5445340000000000    0.3619320000000000    0.2021393333333331 Ti
   0.5445340000000000    0.3619320000000000    0.3688059999999997 Ti
   0.3685410000000002    0.5153020000000010    0.1253591666666663 Ti
   0.3685410000000002    0.5153020000000010    0.2920258333333330 Ti
   0.3685410000000002    0.5153020000000010    0.4586924999999997 Ti
   0.0395639999999990    0.6267690000000000    0.0024180000000000 Ti
   0.0395639999999990    0.6267690000000000    0.1690846666666666 Ti
   0.0395639999999990    0.6267690000000000    0.3357513333333333 Ti
   0.4267149999999991    0.1029350000000001    0.0416316666666667 Ti
   0.4267149999999991    0.1029350000000001    0.2082983333333332 Ti
   0.4267149999999991    0.1029350000000001    0.3749650000000000 Ti
   0.4301250000000000    0.9143660000000000    0.1165274999999999 Ti
   0.4301250000000000    0.9143660000000000    0.2831941666666665 Ti
   0.4301250000000000    0.9143660000000000    0.4498608333333332 Ti
   0.8723019999999996    0.9280300000000002    0.0867188333333333 Ti
   0.8723019999999996    0.9280300000000002    0.2533854999999999 Ti
   0.8723019999999996    0.9280300000000002    0.4200521666666666 Ti
   0.1865880000000000    0.8336970000000010    0.0009659999999997 Ti
   0.1865880000000000    0.8336970000000010    0.1676326666666663 Ti
   0.1865880000000000    0.8336970000000010    0.3342993333333331 Ti
   0.6539610000000002    0.6951250000000000    0.4880188333333332 Ti
   0.6539610000000002    0.6951250000000000    0.1546854999999999 Ti
   0.6539610000000002    0.6951250000000000    0.3213521666666665 Ti
   0.3001759999999999    0.1249779999999997    0.4906583333333334 Ti
   0.3001759999999999    0.1249779999999997    0.1573250000000001 Ti
   0.3001759999999999    0.1249779999999997    0.3239916666666667 Ti
   0.2299519999999999    0.7013280000000000    0.1197425000000000 Ti
   0.2299519999999999    0.7013280000000000    0.2864091666666667 Ti
   0.2299519999999999    0.7013280000000000    0.4530758333333333 Ti
   0.2223479999999999    0.3955090000000000    0.0254060000000000 Ti
   0.2223479999999999    0.3955090000000000    0.1920726666666666 Ti
   0.2223479999999999    0.3955090000000000    0.3587393333333333 Ti
   0.5601389999999993    0.3160910000000000    0.4782355000000000 Ti
   0.5601389999999993    0.3160910000000000    0.1449021666666667 Ti
   0.5601389999999993    0.3160910000000000    0.3115688333333333 Ti
   0.0458439999999990    0.0765540000000000    0.4839005000000000 Ti
   0.0458439999999990    0.0765540000000000    0.1505671666666667 Ti
   0.0458439999999990    0.0765540000000000    0.3172338333333333 Ti
   0.7670669999999988    0.1698310000000008    0.0214664999999999 Ti
   0.7670669999999988    0.1698310000000008    0.1881331666666665 Ti
   0.7670669999999988    0.1698310000000008    0.3547998333333332 Ti
   0.0141669999999990    0.1413960000000010    0.0851661666666665 Ti
   0.0141669999999990    0.1413960000000010    0.2518328333333332 Ti
   0.0141669999999990    0.1413960000000010    0.4184994999999998 Ti
   0.9002000000000000    0.6815009999999999    0.0876318333333334 Ti
   0.9002000000000000    0.6815009999999999    0.2542985000000001 Ti
   0.9002000000000000    0.6815009999999999    0.4209651666666667 Ti
   0.9040300000000002    0.8948880000000002    0.4795158333333333 Ti
   0.9040300000000002    0.8948880000000002    0.1461824999999999 Ti
   0.9040300000000002    0.8948880000000002    0.3128491666666666 Ti
   0.2487680000000000    0.3399710000000001    0.0833770000000000 Ti
   0.2487680000000000    0.3399710000000001    0.2500436666666666 Ti
   0.2487680000000000    0.3399710000000001    0.4167103333333333 Ti
   0.6409000000000002    0.7353340000000003    0.0603206666666667 Ti
   0.6409000000000002    0.7353340000000003    0.2269873333333332 Ti
   0.6409000000000002    0.7353340000000003    0.3936539999999999 Ti
   0.6138279999999990    0.8367120000000000    0.0906316666666666 Ti
   0.6138279999999990    0.8367120000000000    0.2572983333333334 Ti
   0.6138279999999990    0.8367120000000000    0.4239650000000000 Ti
   0.5144870000000001    0.1248010000000002    0.1096753333333333 Ti
   0.5144870000000001    0.1248010000000002    0.2763420000000000 Ti
   0.5144870000000001    0.1248010000000002    0.4430086666666666 Ti
   0.7612200000000001    0.3121970000000009    0.0750878333333330 Ti
   0.7612200000000001    0.3121970000000009    0.2417544999999997 Ti
   0.7612200000000001    0.3121970000000009    0.4084211666666664 Ti
   0.8739560000000002    0.9910120000000001    0.1077670000000000 O
   0.8739560000000002    0.9910120000000001    0.2744336666666667 O
   0.8739560000000002    0.9910120000000001    0.4411003333333333 O
   0.8036150000000000    0.7133380000000001    0.0593583333333332 O
   0.8036150000000000    0.7133380000000001    0.2260249999999998 O
   0.8036150000000000    0.7133380000000001    0.3926916666666663 O
   0.9485159999999990    0.2054380000000000    0.1344026666666667 O
   0.9485159999999990    0.2054380000000000    0.3010693333333332 O
   0.9485159999999990    0.2054380000000000    0.4677360000000000 O
   0.2662120000000000    0.5014220000000009    0.1053019999999998 O
   0.2662120000000000    0.5014220000000009    0.2719686666666665 O
   0.2662120000000000    0.5014220000000009    0.4386353333333332 O
   0.8931300000000003    0.5236930000000000    0.0143481666666667 O
   0.8931300000000003    0.5236930000000000    0.1810148333333333 O
   0.8931300000000003    0.5236930000000000    0.3476815000000000 O
   0.3974479999999990    0.6925810000000001    0.1017888333333333 O
   0.3974479999999990    0.6925810000000001    0.2684555000000001 O
   0.3974479999999990    0.6925810000000001    0.4351221666666667 O
   0.2208709999999990    0.2082220000000000    0.1231471666666667 O
   0.2208709999999990    0.2082220000000000    0.2898138333333333 O
   0.2208709999999990    0.2082220000000000    0.4564805000000001 O
   0.5392760000000002    0.7732650000000000    0.1260751666666665 O
   0.5392760000000002    0.7732650000000000    0.2927418333333331 O
   0.5392760000000002    0.7732650000000000    0.4594084999999999 O
   0.5830440000000002    0.3545419999999999    0.1114621666666667 O
   0.5830440000000002    0.3545419999999999    0.2781288333333334 O
   0.5830440000000002    0.3545419999999999    0.4447954999999999 O
   0.1244670000000000    0.4280370000000000    0.0813869999999998 O
   0.1244670000000000    0.4280370000000000    0.2480536666666664 O
   0.1244670000000000    0.4280370000000000    0.4147203333333330 O
   0.0680549999999990    0.6614070000000000    0.4697360000000000 O
   0.0680549999999990    0.6614070000000000    0.1364026666666666 O
   0.0680549999999990    0.6614070000000000    0.3030693333333332 O
   0.2100409999999990    0.8127910000000002    0.0807706666666666 O
   0.2100409999999990    0.8127910000000002    0.2474373333333333 O
   0.2100409999999990    0.8127910000000002    0.4141039999999999 O
   0.6015980000000001    0.2259720000000008    0.0709983333333332 O
   0.6015980000000001    0.2259720000000008    0.2376649999999999 O
   0.6015980000000001    0.2259720000000008    0.4043316666666665 O
   0.9369569999999992    0.8329630000000001    0.0793909999999998 O
   0.9369569999999992    0.8329630000000001    0.2460576666666665 O
   0.9369569999999992    0.8329630000000001    0.4127243333333331 O
   0.7478680000000001    0.3017190000000008    0.4804604999999999 O
   0.7478680000000001    0.3017190000000008    0.1471271666666666 O
   0.7478680000000001    0.3017190000000008    0.3137938333333332 O
   0.1286800000000000    0.6762770000000001    0.0333210000000000 O
   0.1286800000000000    0.6762770000000001    0.1999876666666667 O
   0.1286800000000000    0.6762770000000001    0.3666543333333333 O
   0.3732089999999991    0.0628869999999998    0.1024719999999999 O
   0.3732089999999991    0.0628869999999998    0.2691386666666665 O
   0.3732089999999991    0.0628869999999998    0.4358053333333333 O
   0.9236479999999990    0.9405430000000010    0.0011929999999999 O
   0.9236479999999990    0.9405430000000010    0.1678596666666666 O
   0.9236479999999990    0.9405430000000010    0.3345263333333333 O
   0.9223730000000000    0.1389929999999998    0.0236371666666667 O
   0.9223730000000000    0.1389929999999998    0.1903038333333334 O
   0.9223730000000000    0.1389929999999998    0.3569705000000001 O
   0.9020089999999999    0.2535110000000002    0.0708693333333332 O
   0.9020089999999999    0.2535110000000002    0.2375359999999998 O
   0.9020089999999999    0.2535110000000002    0.4042026666666664 O
   0.5288700000000001    0.4666590000000002    0.1335708333333332 O
   0.5288700000000001    0.4666590000000002    0.3002374999999998 O
   0.5288700000000001    0.4666590000000002    0.4669041666666665 O
   0.0372740000000000    0.6255510000000000    0.0829771666666667 O
   0.0372740000000000    0.6255510000000000    0.2496438333333334 O
   0.0372740000000000    0.6255510000000000    0.4163105000000000 O
   0.7350010000000000    0.9933010000000002    0.0643951666666667 O
   0.7350010000000000    0.9933010000000002    0.2310618333333333 O
   0.7350010000000000    0.9933010000000002    0.3977284999999998 O
   0.7777479999999998    0.7652890000000001    0.4962933333333332 O
   0.7777479999999998    0.7652890000000001    0.1629599999999999 O
   0.7777479999999998    0.7652890000000001    0.3296266666666664 O
   0.1128660000000000    0.3028190000000008    0.0200581666666666 O
   0.1128660000000000    0.3028190000000008    0.1867248333333333 O
   0.1128660000000000    0.3028190000000008    0.3533915000000000 O
   0.5646110000000001    0.9682820000000010    0.1261763333333332 O
   0.5646110000000001    0.9682820000000010    0.2928429999999997 O
   0.5646110000000001    0.9682820000000010    0.4595096666666664 O
   0.8562139999999991    0.5527519999999999    0.1272018333333333 O
   0.8562139999999991    0.5527519999999999    0.2938685000000000 O
   0.8562139999999991    0.5527519999999999    0.4605351666666667 O
   0.2876890000000000    0.7950530000000001    0.1273974999999999 O
   0.2876890000000000    0.7950530000000001    0.2940641666666666 O
   0.2876890000000000    0.7950530000000001    0.4607308333333332 O
   0.3119490000000000    0.7310080000000001    0.0519553333333333 O
   0.3119490000000000    0.7310080000000001    0.2186220000000001 O
   0.3119490000000000    0.7310080000000001    0.3852886666666667 O
   0.6368840000000000    0.4425230000000001    0.0537570000000000 O
   0.6368840000000000    0.4425230000000001    0.2204236666666667 O
   0.6368840000000000    0.4425230000000001    0.3870903333333333 O
   0.4617560000000002    0.0854470000000001    0.4798071666666667 O
   0.4617560000000002    0.0854470000000001    0.1464738333333334 O
   0.4617560000000002    0.0854470000000001    0.3131405000000000 O
   0.0542060000000000    0.0632090000000008    0.1215659999999999 O
   0.0542060000000000    0.0632090000000008    0.2882326666666666 O
   0.0542060000000000    0.0632090000000008    0.4548993333333332 O
   0.3509839999999990    0.8173380000000001    0.4970124999999999 O
   0.3509839999999990    0.8173380000000001    0.1636791666666666 O
   0.3509839999999990    0.8173380000000001    0.3303458333333332 O
   0.4720379999999992    0.9702880000000003    0.0784218333333332 O
   0.4720379999999992    0.9702880000000003    0.2450884999999998 O
   0.4720379999999992    0.9702880000000003    0.4117551666666665 O
   0.7638309999999990    0.7918760000000000    0.1170846666666667 O
   0.7638309999999990    0.7918760000000000    0.2837513333333334 O
   0.7638309999999990    0.7918760000000000    0.4504180000000000 O
   0.5759319999999999    0.1332180000000011    0.0174899999999998 O
   0.5759319999999999    0.1332180000000011    0.1841566666666665 O
   0.5759319999999999    0.1332180000000011    0.3508233333333330 O
   0.4226640000000000    0.2914620000000000    0.0898131666666665 O
   0.4226640000000000    0.2914620000000000    0.2564798333333332 O
   0.4226640000000000    0.2914620000000000    0.4231464999999999 O
   0.1914030000000000    0.9599750000000002    0.0014958333333333 O
   0.1914030000000000    0.9599750000000002    0.1681625000000000 O
   0.1914030000000000    0.9599750000000002    0.3348291666666666 O
   0.1594519999999990    0.5195680000000009    0.0217819999999997 O
   0.1594519999999990    0.5195680000000009    0.1884486666666664 O
   0.1594519999999990    0.5195680000000009    0.3551153333333330 O
   0.1384619999999999    0.1140920000000008    0.0068994999999997 O
   0.1384619999999999    0.1140920000000008    0.1735661666666664 O
   0.1384619999999999    0.1140920000000008    0.3402328333333331 O
   0.3836949999999998    0.2549929999999998    0.4868113333333332 O
   0.3836949999999998    0.2549929999999998    0.1534779999999999 O
   0.3836949999999998    0.2549929999999998    0.3201446666666665 O
   0.2678300000000000    0.5161840000000010    0.4827394999999999 O
   0.2678300000000000    0.5161840000000010    0.1494061666666665 O
   0.2678300000000000    0.5161840000000010    0.3160728333333331 O
   0.7179100000000000    0.0698520000000002    0.4987990000000000 O
   0.7179100000000000    0.0698520000000002    0.1654656666666666 O
   0.7179100000000000    0.0698520000000002    0.3321323333333334 O
   0.3878410000000001    0.4028710000000002    0.0330473333333333 O
   0.3878410000000001    0.4028710000000002    0.1997140000000000 O
   0.3878410000000001    0.4028710000000002    0.3663806666666667 O
   0.3703140000000000    0.9993610000000012    0.0295984999999997 O
   0.3703140000000000    0.9993610000000012    0.1962651666666663 O
   0.3703140000000000    0.9993610000000012    0.3629318333333331 O
   0.1724170000000000    0.2708770000000001    0.0682156666666665 O
   0.1724170000000000    0.2708770000000001    0.2348823333333332 O
   0.1724170000000000    0.2708770000000001    0.4015489999999998 O
   0.0296230000000000    0.0548199999999999    0.0708455000000000 O
   0.0296230000000000    0.0548199999999999    0.2375121666666666 O
   0.0296230000000000    0.0548199999999999    0.4041788333333333 O
   0.0428710000000000    0.8070050000000001    0.4847510000000000 O
   0.0428710000000000    0.8070050000000001    0.1514176666666667 O
   0.0428710000000000    0.8070050000000001    0.3180843333333333 O
   0.7001120000000000    0.1780890000000001    0.1125074999999999 O
   0.7001120000000000    0.1780890000000001    0.2791741666666665 O
   0.7001120000000000    0.1780890000000001    0.4458408333333332 O
   0.5427529999999994    0.6028380000000010    0.0681626666666665 O
   0.5427529999999994    0.6028380000000010    0.2348293333333331 O
   0.5427529999999994    0.6028380000000010    0.4014959999999999 O
   0.6677839999999992    0.7085150000000000    0.0938656666666667 O
   0.6677839999999992    0.7085150000000000    0.2605323333333334 O
   0.6677839999999992    0.7085150000000000    0.4271990000000000 O
   0.5019669999999992    0.2638999999999998    0.0269425000000001 O
   0.5019669999999992    0.2638999999999998    0.1936091666666667 O
   0.5019669999999992    0.2638999999999998    0.3602758333333334 O
   0.5481920000000000    0.8703910000000000    0.0558248333333333 O
   0.5481920000000000    0.8703910000000000    0.2224915000000000 O
   0.5481920000000000    0.8703910000000000    0.3891581666666667 O
   0.5340460000000001    0.6660159999999999    0.0132569999999999 O
   0.5340460000000001    0.6660159999999999    0.1799236666666665 O
   0.5340460000000001    0.6660159999999999    0.3465903333333332 O
   0.3606370000000000    0.5156370000000000    0.0592258333333334 O
   0.3606370000000000    0.5156370000000000    0.2258925000000001 O
   0.3606370000000000    0.5156370000000000    0.3925591666666667 O
   0.7773439999999990    0.3032550000000002    0.0217751666666666 O
   0.7773439999999990    0.3032550000000002    0.1884418333333333 O
   0.7773439999999990    0.3032550000000002    0.3551085000000000 O
   0.2641879999999999    0.1172580000000010    0.0446829999999999 O
   0.2641879999999999    0.1172580000000010    0.2113496666666665 O
   0.2641879999999999    0.1172580000000010    0.3780163333333331 O
   0.8271069999999990    0.3857580000000001    0.0882426666666667 O
   0.8271069999999990    0.3857580000000001    0.2549093333333333 O
   0.8271069999999990    0.3857580000000001    0.4215760000000001 O
   0.6517999999999999    0.5210360000000001    0.0012010000000000 O
   0.6517999999999999    0.5210360000000001    0.1678676666666666 O
   0.6517999999999999    0.5210360000000001    0.3345343333333334 O
   0.5605660000000001    0.8361070000000010    0.0227519999999997 O
   0.5605660000000001    0.8361070000000010    0.1894186666666664 O
   0.5605660000000001    0.8361070000000010    0.3560853333333330 O
