Ti90 O180
1.0
  10.7847349425586163    0.0000000000000000    0.0060328200944446
  -1.2247047225377732   10.4583487854001529    9.3482210382165096
   0.0000000000000000    0.0000000000000000   62.9170570674836966
Ti O
90 180
direct
   0.3479379999999991    0.8204740000000001    0.0242858333333334 Ti
   0.3479379999999991    0.8204740000000001    0.1909525000000001 Ti
   0.3479379999999991    0.8204740000000001    0.3576191666666668 Ti
   0.1008690000000000    0.1441720000000008    0.4939514999999999 Ti
   0.1008690000000000    0.1441720000000008    0.1606181666666666 Ti
   0.1008690000000000    0.1441720000000008    0.3272848333333332 Ti
   0.8065249999999994    0.4774350000000001    0.4577683333333334 Ti
   0.8065249999999994    0.4774350000000001    0.1244350000000001 Ti
   0.8065249999999994    0.4774350000000001    0.2911016666666667 Ti
   0.7909490000000001    0.2465539999999999    0.0889601666666667 Ti
   0.7909490000000001    0.2465539999999999    0.2556268333333335 Ti
   0.7909490000000001    0.2465539999999999    0.4222935000000002 Ti
   0.4398120000000000    0.7044890000000010    0.4916579999999999 Ti
   0.4398120000000000    0.7044890000000010    0.1583246666666665 Ti
   0.4398120000000000    0.7044890000000010    0.3249913333333332 Ti
   0.1631409999999990    0.5778510000000001    0.0346645000000001 Ti
   0.1631409999999990    0.5778510000000001    0.2013311666666667 Ti
   0.1631409999999990    0.5778510000000001    0.3679978333333334 Ti
   0.5602509999999991    0.0046750000000008    0.4733026666666666 Ti
   0.5602509999999991    0.0046750000000008    0.1399693333333333 Ti
   0.5602509999999991    0.0046750000000008    0.3066360000000000 Ti
   0.5211030000000000    0.4422479999999999    0.0366260000000001 Ti
   0.5211030000000000    0.4422479999999999    0.2032926666666668 Ti
   0.5211030000000000    0.4422479999999999    0.3699593333333335 Ti
   0.5445340000000000    0.3619320000000000    0.4969204999999999 Ti
   0.5445340000000000    0.3619320000000000    0.1635871666666665 Ti
   0.5445340000000000    0.3619320000000000    0.3302538333333332 Ti
   0.3685410000000002    0.5153020000000010    0.0868069999999997 Ti
   0.3685410000000002    0.5153020000000010    0.2534736666666664 Ti
   0.3685410000000002    0.5153020000000010    0.4201403333333332 Ti
   0.0395639999999990    0.6267690000000000    0.4638658333333334 Ti
   0.0395639999999990    0.6267690000000000    0.1305325000000000 Ti
   0.0395639999999990    0.6267690000000000    0.2971991666666667 Ti
   0.4267149999999991    0.1029350000000001    0.0030795000000001 Ti
   0.4267149999999991    0.1029350000000001    0.1697461666666666 Ti
   0.4267149999999991    0.1029350000000001    0.3364128333333334 Ti
   0.4301250000000000    0.9143660000000000    0.0779753333333333 Ti
   0.4301250000000000    0.9143660000000000    0.2446420000000000 Ti
   0.4301250000000000    0.9143660000000000    0.4113086666666666 Ti
   0.8723019999999996    0.9280300000000002    0.0481666666666667 Ti
   0.8723019999999996    0.9280300000000002    0.2148333333333334 Ti
   0.8723019999999996    0.9280300000000002    0.3815000000000000 Ti
   0.1865880000000000    0.8336970000000010    0.4624138333333331 Ti
   0.1865880000000000    0.8336970000000010    0.1290804999999998 Ti
   0.1865880000000000    0.8336970000000010    0.2957471666666665 Ti
   0.6539610000000002    0.6951250000000000    0.4494666666666666 Ti
   0.6539610000000002    0.6951250000000000    0.1161333333333333 Ti
   0.6539610000000002    0.6951250000000000    0.2828000000000000 Ti
   0.3001759999999999    0.1249779999999997    0.4521061666666668 Ti
   0.3001759999999999    0.1249779999999997    0.1187728333333335 Ti
   0.3001759999999999    0.1249779999999997    0.2854395000000001 Ti
   0.2299519999999999    0.7013280000000000    0.0811903333333334 Ti
   0.2299519999999999    0.7013280000000000    0.2478570000000002 Ti
   0.2299519999999999    0.7013280000000000    0.4145236666666668 Ti
   0.2223479999999999    0.3955090000000000    0.4868538333333334 Ti
   0.2223479999999999    0.3955090000000000    0.1535205000000001 Ti
   0.2223479999999999    0.3955090000000000    0.3201871666666667 Ti
   0.5601389999999993    0.3160910000000000    0.4396833333333334 Ti
   0.5601389999999993    0.3160910000000000    0.1063500000000001 Ti
   0.5601389999999993    0.3160910000000000    0.2730166666666667 Ti
   0.0458439999999990    0.0765540000000000    0.4453483333333334 Ti
   0.0458439999999990    0.0765540000000000    0.1120150000000001 Ti
   0.0458439999999990    0.0765540000000000    0.2786816666666668 Ti
   0.7670669999999988    0.1698310000000008    0.4829143333333333 Ti
   0.7670669999999988    0.1698310000000008    0.1495810000000000 Ti
   0.7670669999999988    0.1698310000000008    0.3162476666666666 Ti
   0.0141669999999990    0.1413960000000010    0.0466139999999999 Ti
   0.0141669999999990    0.1413960000000010    0.2132806666666666 Ti
   0.0141669999999990    0.1413960000000010    0.3799473333333332 Ti
   0.9002000000000000    0.6815009999999999    0.0490796666666668 Ti
   0.9002000000000000    0.6815009999999999    0.2157463333333335 Ti
   0.9002000000000000    0.6815009999999999    0.3824130000000002 Ti
   0.9040300000000002    0.8948880000000002    0.4409636666666667 Ti
   0.9040300000000002    0.8948880000000002    0.1076303333333333 Ti
   0.9040300000000002    0.8948880000000002    0.2742970000000001 Ti
   0.2487680000000000    0.3399710000000001    0.0448248333333334 Ti
   0.2487680000000000    0.3399710000000001    0.2114915000000000 Ti
   0.2487680000000000    0.3399710000000001    0.3781581666666667 Ti
   0.6409000000000002    0.7353340000000003    0.0217685000000001 Ti
   0.6409000000000002    0.7353340000000003    0.1884351666666667 Ti
   0.6409000000000002    0.7353340000000003    0.3551018333333334 Ti
   0.6138279999999990    0.8367120000000000    0.0520795000000000 Ti
   0.6138279999999990    0.8367120000000000    0.2187461666666668 Ti
   0.6138279999999990    0.8367120000000000    0.3854128333333334 Ti
   0.5144870000000001    0.1248010000000002    0.0711231666666667 Ti
   0.5144870000000001    0.1248010000000002    0.2377898333333334 Ti
   0.5144870000000001    0.1248010000000002    0.4044565000000001 Ti
   0.7612200000000001    0.3121970000000009    0.0365356666666665 Ti
   0.7612200000000001    0.3121970000000009    0.2032023333333332 Ti
   0.7612200000000001    0.3121970000000009    0.3698689999999998 Ti
   0.8739560000000002    0.9910120000000001    0.0692148333333334 O
   0.8739560000000002    0.9910120000000001    0.2358815000000001 O
   0.8739560000000002    0.9910120000000001    0.4025481666666667 O
   0.8036150000000000    0.7133380000000001    0.0208061666666666 O
   0.8036150000000000    0.7133380000000001    0.1874728333333333 O
   0.8036150000000000    0.7133380000000001    0.3541394999999997 O
   0.9485159999999990    0.2054380000000000    0.0958505000000001 O
   0.9485159999999990    0.2054380000000000    0.2625171666666666 O
   0.9485159999999990    0.2054380000000000    0.4291838333333335 O
   0.2662120000000000    0.5014220000000009    0.0667498333333332 O
   0.2662120000000000    0.5014220000000009    0.2334165000000000 O
   0.2662120000000000    0.5014220000000009    0.4000831666666666 O
   0.8931300000000003    0.5236930000000000    0.4757960000000001 O
   0.8931300000000003    0.5236930000000000    0.1424626666666667 O
   0.8931300000000003    0.5236930000000000    0.3091293333333334 O
   0.3974479999999990    0.6925810000000001    0.0632366666666667 O
   0.3974479999999990    0.6925810000000001    0.2299033333333335 O
   0.3974479999999990    0.6925810000000001    0.3965700000000001 O
   0.2208709999999990    0.2082220000000000    0.0845950000000001 O
   0.2208709999999990    0.2082220000000000    0.2512616666666668 O
   0.2208709999999990    0.2082220000000000    0.4179283333333335 O
   0.5392760000000002    0.7732650000000000    0.0875229999999999 O
   0.5392760000000002    0.7732650000000000    0.2541896666666666 O
   0.5392760000000002    0.7732650000000000    0.4208563333333333 O
   0.5830440000000002    0.3545419999999999    0.0729100000000001 O
   0.5830440000000002    0.3545419999999999    0.2395766666666668 O
   0.5830440000000002    0.3545419999999999    0.4062433333333333 O
   0.1244670000000000    0.4280370000000000    0.0428348333333333 O
   0.1244670000000000    0.4280370000000000    0.2095014999999998 O
   0.1244670000000000    0.4280370000000000    0.3761681666666665 O
   0.0680549999999990    0.6614070000000000    0.4311838333333334 O
   0.0680549999999990    0.6614070000000000    0.0978505000000000 O
   0.0680549999999990    0.6614070000000000    0.2645171666666666 O
   0.2100409999999990    0.8127910000000002    0.0422185000000000 O
   0.2100409999999990    0.8127910000000002    0.2088851666666667 O
   0.2100409999999990    0.8127910000000002    0.3755518333333334 O
   0.6015980000000001    0.2259720000000008    0.0324461666666666 O
   0.6015980000000001    0.2259720000000008    0.1991128333333333 O
   0.6015980000000001    0.2259720000000008    0.3657794999999999 O
   0.9369569999999992    0.8329630000000001    0.0408388333333332 O
   0.9369569999999992    0.8329630000000001    0.2075054999999999 O
   0.9369569999999992    0.8329630000000001    0.3741721666666665 O
   0.7478680000000001    0.3017190000000008    0.4419083333333333 O
   0.7478680000000001    0.3017190000000008    0.1085750000000000 O
   0.7478680000000001    0.3017190000000008    0.2752416666666667 O
   0.1286800000000000    0.6762770000000001    0.4947688333333334 O
   0.1286800000000000    0.6762770000000001    0.1614355000000001 O
   0.1286800000000000    0.6762770000000001    0.3281021666666668 O
   0.3732089999999991    0.0628869999999998    0.0639198333333333 O
   0.3732089999999991    0.0628869999999998    0.2305865000000000 O
   0.3732089999999991    0.0628869999999998    0.3972531666666667 O
   0.9236479999999990    0.9405430000000010    0.4626408333333333 O
   0.9236479999999990    0.9405430000000010    0.1293075000000000 O
   0.9236479999999990    0.9405430000000010    0.2959741666666666 O
   0.9223730000000000    0.1389929999999998    0.4850850000000001 O
   0.9223730000000000    0.1389929999999998    0.1517516666666668 O
   0.9223730000000000    0.1389929999999998    0.3184183333333335 O
   0.9020089999999999    0.2535110000000002    0.0323171666666666 O
   0.9020089999999999    0.2535110000000002    0.1989838333333332 O
   0.9020089999999999    0.2535110000000002    0.3656504999999998 O
   0.5288700000000001    0.4666590000000002    0.0950186666666666 O
   0.5288700000000001    0.4666590000000002    0.2616853333333333 O
   0.5288700000000001    0.4666590000000002    0.4283519999999999 O
   0.0372740000000000    0.6255510000000000    0.0444250000000001 O
   0.0372740000000000    0.6255510000000000    0.2110916666666668 O
   0.0372740000000000    0.6255510000000000    0.3777583333333334 O
   0.7350010000000000    0.9933010000000002    0.0258430000000001 O
   0.7350010000000000    0.9933010000000002    0.1925096666666667 O
   0.7350010000000000    0.9933010000000002    0.3591763333333333 O
   0.7777479999999998    0.7652890000000001    0.4577411666666666 O
   0.7777479999999998    0.7652890000000001    0.1244078333333333 O
   0.7777479999999998    0.7652890000000001    0.2910744999999998 O
   0.1128660000000000    0.3028190000000008    0.4815060000000000 O
   0.1128660000000000    0.3028190000000008    0.1481726666666667 O
   0.1128660000000000    0.3028190000000008    0.3148393333333334 O
   0.5646110000000001    0.9682820000000010    0.0876241666666666 O
   0.5646110000000001    0.9682820000000010    0.2542908333333332 O
   0.5646110000000001    0.9682820000000010    0.4209574999999998 O
   0.8562139999999991    0.5527519999999999    0.0886496666666667 O
   0.8562139999999991    0.5527519999999999    0.2553163333333334 O
   0.8562139999999991    0.5527519999999999    0.4219830000000002 O
   0.2876890000000000    0.7950530000000001    0.0888453333333333 O
   0.2876890000000000    0.7950530000000001    0.2555120000000000 O
   0.2876890000000000    0.7950530000000001    0.4221786666666666 O
   0.3119490000000000    0.7310080000000001    0.0134031666666667 O
   0.3119490000000000    0.7310080000000001    0.1800698333333335 O
   0.3119490000000000    0.7310080000000001    0.3467365000000001 O
   0.6368840000000000    0.4425230000000001    0.0152048333333334 O
   0.6368840000000000    0.4425230000000001    0.1818715000000001 O
   0.6368840000000000    0.4425230000000001    0.3485381666666668 O
   0.4617560000000002    0.0854470000000001    0.4412550000000001 O
   0.4617560000000002    0.0854470000000001    0.1079216666666668 O
   0.4617560000000002    0.0854470000000001    0.2745883333333334 O
   0.0542060000000000    0.0632090000000008    0.0830138333333333 O
   0.0542060000000000    0.0632090000000008    0.2496805000000000 O
   0.0542060000000000    0.0632090000000008    0.4163471666666667 O
   0.3509839999999990    0.8173380000000001    0.4584603333333332 O
   0.3509839999999990    0.8173380000000001    0.1251270000000000 O
   0.3509839999999990    0.8173380000000001    0.2917936666666666 O
   0.4720379999999992    0.9702880000000003    0.0398696666666666 O
   0.4720379999999992    0.9702880000000003    0.2065363333333333 O
   0.4720379999999992    0.9702880000000003    0.3732029999999999 O
   0.7638309999999990    0.7918760000000000    0.0785325000000001 O
   0.7638309999999990    0.7918760000000000    0.2451991666666668 O
   0.7638309999999990    0.7918760000000000    0.4118658333333334 O
   0.5759319999999999    0.1332180000000011    0.4789378333333332 O
   0.5759319999999999    0.1332180000000011    0.1456044999999999 O
   0.5759319999999999    0.1332180000000011    0.3122711666666665 O
   0.4226640000000000    0.2914620000000000    0.0512609999999999 O
   0.4226640000000000    0.2914620000000000    0.2179276666666666 O
   0.4226640000000000    0.2914620000000000    0.3845943333333333 O
   0.1914030000000000    0.9599750000000002    0.4629436666666667 O
   0.1914030000000000    0.9599750000000002    0.1296103333333334 O
   0.1914030000000000    0.9599750000000002    0.2962770000000001 O
   0.1594519999999990    0.5195680000000009    0.4832298333333331 O
   0.1594519999999990    0.5195680000000009    0.1498964999999998 O
   0.1594519999999990    0.5195680000000009    0.3165631666666665 O
   0.1384619999999999    0.1140920000000008    0.4683473333333331 O
   0.1384619999999999    0.1140920000000008    0.1350139999999999 O
   0.1384619999999999    0.1140920000000008    0.3016806666666665 O
   0.3836949999999998    0.2549929999999998    0.4482591666666666 O
   0.3836949999999998    0.2549929999999998    0.1149258333333333 O
   0.3836949999999998    0.2549929999999998    0.2815925000000000 O
   0.2678300000000000    0.5161840000000010    0.4441873333333333 O
   0.2678300000000000    0.5161840000000010    0.1108539999999999 O
   0.2678300000000000    0.5161840000000010    0.2775206666666666 O
   0.7179100000000000    0.0698520000000002    0.4602468333333334 O
   0.7179100000000000    0.0698520000000002    0.1269135000000001 O
   0.7179100000000000    0.0698520000000002    0.2935801666666668 O
   0.3878410000000001    0.4028710000000002    0.4944951666666667 O
   0.3878410000000001    0.4028710000000002    0.1611618333333334 O
   0.3878410000000001    0.4028710000000002    0.3278285000000001 O
   0.3703140000000000    0.9993610000000012    0.4910463333333331 O
   0.3703140000000000    0.9993610000000012    0.1577129999999997 O
   0.3703140000000000    0.9993610000000012    0.3243796666666666 O
   0.1724170000000000    0.2708770000000001    0.0296634999999999 O
   0.1724170000000000    0.2708770000000001    0.1963301666666666 O
   0.1724170000000000    0.2708770000000001    0.3629968333333333 O
   0.0296230000000000    0.0548199999999999    0.0322933333333334 O
   0.0296230000000000    0.0548199999999999    0.1989600000000000 O
   0.0296230000000000    0.0548199999999999    0.3656266666666667 O
   0.0428710000000000    0.8070050000000001    0.4461988333333334 O
   0.0428710000000000    0.8070050000000001    0.1128655000000001 O
   0.0428710000000000    0.8070050000000001    0.2795321666666667 O
   0.7001120000000000    0.1780890000000001    0.0739553333333333 O
   0.7001120000000000    0.1780890000000001    0.2406219999999999 O
   0.7001120000000000    0.1780890000000001    0.4072886666666666 O
   0.5427529999999994    0.6028380000000010    0.0296104999999999 O
   0.5427529999999994    0.6028380000000010    0.1962771666666666 O
   0.5427529999999994    0.6028380000000010    0.3629438333333332 O
   0.6677839999999992    0.7085150000000000    0.0553135000000001 O
   0.6677839999999992    0.7085150000000000    0.2219801666666668 O
   0.6677839999999992    0.7085150000000000    0.3886468333333334 O
   0.5019669999999992    0.2638999999999998    0.4883903333333335 O
   0.5019669999999992    0.2638999999999998    0.1550570000000001 O
   0.5019669999999992    0.2638999999999998    0.3217236666666667 O
   0.5481920000000000    0.8703910000000000    0.0172726666666667 O
   0.5481920000000000    0.8703910000000000    0.1839393333333334 O
   0.5481920000000000    0.8703910000000000    0.3506060000000001 O
   0.5340460000000001    0.6660159999999999    0.4747048333333333 O
   0.5340460000000001    0.6660159999999999    0.1413714999999999 O
   0.5340460000000001    0.6660159999999999    0.3080381666666667 O
   0.3606370000000000    0.5156370000000000    0.0206736666666668 O
   0.3606370000000000    0.5156370000000000    0.1873403333333335 O
   0.3606370000000000    0.5156370000000000    0.3540070000000001 O
   0.7773439999999990    0.3032550000000002    0.4832230000000000 O
   0.7773439999999990    0.3032550000000002    0.1498896666666667 O
   0.7773439999999990    0.3032550000000002    0.3165563333333334 O
   0.2641879999999999    0.1172580000000010    0.0061308333333333 O
   0.2641879999999999    0.1172580000000010    0.1727974999999999 O
   0.2641879999999999    0.1172580000000010    0.3394641666666665 O
   0.8271069999999990    0.3857580000000001    0.0496905000000001 O
   0.8271069999999990    0.3857580000000001    0.2163571666666667 O
   0.8271069999999990    0.3857580000000001    0.3830238333333335 O
   0.6517999999999999    0.5210360000000001    0.4626488333333334 O
   0.6517999999999999    0.5210360000000001    0.1293155000000000 O
   0.6517999999999999    0.5210360000000001    0.2959821666666668 O
   0.5605660000000001    0.8361070000000010    0.4841998333333331 O
   0.5605660000000001    0.8361070000000010    0.1508664999999998 O
   0.5605660000000001    0.8361070000000010    0.3175331666666665 O
