Ti90 O180
1.0
  10.7847349425586163    0.0000000000000000    0.0060328200944446
  -1.2247047225377732   10.4583487854001529    9.3482210382165096
   0.0000000000000000    0.0000000000000000   62.9170570674836966
Ti O
90 180
direct
   0.3479379999999991    0.8204740000000001    0.4435126666666667 Ti
   0.3479379999999991    0.8204740000000001    0.1101793333333334 Ti
   0.3479379999999991    0.8204740000000001    0.2768460000000000 Ti
   0.1008690000000000    0.1441720000000008    0.4131783333333332 Ti
   0.1008690000000000    0.1441720000000008    0.0798449999999998 Ti
   0.1008690000000000    0.1441720000000008    0.2465116666666665 Ti
   0.8065249999999994    0.4774350000000001    0.3769951666666667 Ti
   0.8065249999999994    0.4774350000000001    0.0436618333333333 Ti
   0.8065249999999994    0.4774350000000001    0.2103285000000000 Ti
   0.7909490000000001    0.2465539999999999    0.0081870000000000 Ti
   0.7909490000000001    0.2465539999999999    0.1748536666666668 Ti
   0.7909490000000001    0.2465539999999999    0.3415203333333334 Ti
   0.4398120000000000    0.7044890000000010    0.4108848333333332 Ti
   0.4398120000000000    0.7044890000000010    0.0775514999999998 Ti
   0.4398120000000000    0.7044890000000010    0.2442181666666665 Ti
   0.1631409999999990    0.5778510000000001    0.4538913333333334 Ti
   0.1631409999999990    0.5778510000000001    0.1205580000000000 Ti
   0.1631409999999990    0.5778510000000001    0.2872246666666666 Ti
   0.5602509999999991    0.0046750000000008    0.3925294999999999 Ti
   0.5602509999999991    0.0046750000000008    0.0591961666666666 Ti
   0.5602509999999991    0.0046750000000008    0.2258628333333333 Ti
   0.5211030000000000    0.4422479999999999    0.4558528333333334 Ti
   0.5211030000000000    0.4422479999999999    0.1225195000000001 Ti
   0.5211030000000000    0.4422479999999999    0.2891861666666667 Ti
   0.5445340000000000    0.3619320000000000    0.4161473333333332 Ti
   0.5445340000000000    0.3619320000000000    0.0828139999999998 Ti
   0.5445340000000000    0.3619320000000000    0.2494806666666665 Ti
   0.3685410000000002    0.5153020000000010    0.0060338333333330 Ti
   0.3685410000000002    0.5153020000000010    0.1727004999999996 Ti
   0.3685410000000002    0.5153020000000010    0.3393671666666664 Ti
   0.0395639999999990    0.6267690000000000    0.3830926666666666 Ti
   0.0395639999999990    0.6267690000000000    0.0497593333333333 Ti
   0.0395639999999990    0.6267690000000000    0.2164260000000000 Ti
   0.4267149999999991    0.1029350000000001    0.4223063333333333 Ti
   0.4267149999999991    0.1029350000000001    0.0889729999999999 Ti
   0.4267149999999991    0.1029350000000001    0.2556396666666667 Ti
   0.4301250000000000    0.9143660000000000    0.4972021666666666 Ti
   0.4301250000000000    0.9143660000000000    0.1638688333333332 Ti
   0.4301250000000000    0.9143660000000000    0.3305354999999999 Ti
   0.8723019999999996    0.9280300000000002    0.4673935000000000 Ti
   0.8723019999999996    0.9280300000000002    0.1340601666666666 Ti
   0.8723019999999996    0.9280300000000002    0.3007268333333332 Ti
   0.1865880000000000    0.8336970000000010    0.3816406666666664 Ti
   0.1865880000000000    0.8336970000000010    0.0483073333333330 Ti
   0.1865880000000000    0.8336970000000010    0.2149739999999997 Ti
   0.6539610000000002    0.6951250000000000    0.3686934999999998 Ti
   0.6539610000000002    0.6951250000000000    0.0353601666666666 Ti
   0.6539610000000002    0.6951250000000000    0.2020268333333333 Ti
   0.3001759999999999    0.1249779999999997    0.3713330000000001 Ti
   0.3001759999999999    0.1249779999999997    0.0379996666666668 Ti
   0.3001759999999999    0.1249779999999997    0.2046663333333334 Ti
   0.2299519999999999    0.7013280000000000    0.0004171666666667 Ti
   0.2299519999999999    0.7013280000000000    0.1670838333333334 Ti
   0.2299519999999999    0.7013280000000000    0.3337505000000001 Ti
   0.2223479999999999    0.3955090000000000    0.4060806666666668 Ti
   0.2223479999999999    0.3955090000000000    0.0727473333333333 Ti
   0.2223479999999999    0.3955090000000000    0.2394140000000000 Ti
   0.5601389999999993    0.3160910000000000    0.3589101666666667 Ti
   0.5601389999999993    0.3160910000000000    0.0255768333333334 Ti
   0.5601389999999993    0.3160910000000000    0.1922435000000000 Ti
   0.0458439999999990    0.0765540000000000    0.3645751666666667 Ti
   0.0458439999999990    0.0765540000000000    0.0312418333333334 Ti
   0.0458439999999990    0.0765540000000000    0.1979085000000000 Ti
   0.7670669999999988    0.1698310000000008    0.4021411666666665 Ti
   0.7670669999999988    0.1698310000000008    0.0688078333333332 Ti
   0.7670669999999988    0.1698310000000008    0.2354744999999999 Ti
   0.0141669999999990    0.1413960000000010    0.4658408333333332 Ti
   0.0141669999999990    0.1413960000000010    0.1325074999999999 Ti
   0.0141669999999990    0.1413960000000010    0.2991741666666665 Ti
   0.9002000000000000    0.6815009999999999    0.4683065000000001 Ti
   0.9002000000000000    0.6815009999999999    0.1349731666666668 Ti
   0.9002000000000000    0.6815009999999999    0.3016398333333334 Ti
   0.9040300000000002    0.8948880000000002    0.3601905000000000 Ti
   0.9040300000000002    0.8948880000000002    0.0268571666666666 Ti
   0.9040300000000002    0.8948880000000002    0.1935238333333333 Ti
   0.2487680000000000    0.3399710000000001    0.4640516666666667 Ti
   0.2487680000000000    0.3399710000000001    0.1307183333333333 Ti
   0.2487680000000000    0.3399710000000001    0.2973850000000000 Ti
   0.6409000000000002    0.7353340000000003    0.4409953333333334 Ti
   0.6409000000000002    0.7353340000000003    0.1076619999999999 Ti
   0.6409000000000002    0.7353340000000003    0.2743286666666667 Ti
   0.6138279999999990    0.8367120000000000    0.4713063333333333 Ti
   0.6138279999999990    0.8367120000000000    0.1379730000000001 Ti
   0.6138279999999990    0.8367120000000000    0.3046396666666667 Ti
   0.5144870000000001    0.1248010000000002    0.4903500000000000 Ti
   0.5144870000000001    0.1248010000000002    0.1570166666666666 Ti
   0.5144870000000001    0.1248010000000002    0.3236833333333333 Ti
   0.7612200000000001    0.3121970000000009    0.4557624999999997 Ti
   0.7612200000000001    0.3121970000000009    0.1224291666666664 Ti
   0.7612200000000001    0.3121970000000009    0.2890958333333331 Ti
   0.8739560000000002    0.9910120000000001    0.4884416666666667 O
   0.8739560000000002    0.9910120000000001    0.1551083333333333 O
   0.8739560000000002    0.9910120000000001    0.3217750000000000 O
   0.8036150000000000    0.7133380000000001    0.4400329999999998 O
   0.8036150000000000    0.7133380000000001    0.1066996666666665 O
   0.8036150000000000    0.7133380000000001    0.2733663333333330 O
   0.9485159999999990    0.2054380000000000    0.0150773333333334 O
   0.9485159999999990    0.2054380000000000    0.1817439999999999 O
   0.9485159999999990    0.2054380000000000    0.3484106666666668 O
   0.2662120000000000    0.5014220000000009    0.4859766666666665 O
   0.2662120000000000    0.5014220000000009    0.1526433333333332 O
   0.2662120000000000    0.5014220000000009    0.3193099999999999 O
   0.8931300000000003    0.5236930000000000    0.3950228333333334 O
   0.8931300000000003    0.5236930000000000    0.0616895000000000 O
   0.8931300000000003    0.5236930000000000    0.2283561666666667 O
   0.3974479999999990    0.6925810000000001    0.4824635000000000 O
   0.3974479999999990    0.6925810000000001    0.1491301666666668 O
   0.3974479999999990    0.6925810000000001    0.3157968333333334 O
   0.2208709999999990    0.2082220000000000    0.0038218333333334 O
   0.2208709999999990    0.2082220000000000    0.1704885000000000 O
   0.2208709999999990    0.2082220000000000    0.3371551666666668 O
   0.5392760000000002    0.7732650000000000    0.0067498333333332 O
   0.5392760000000002    0.7732650000000000    0.1734164999999999 O
   0.5392760000000002    0.7732650000000000    0.3400831666666666 O
   0.5830440000000002    0.3545419999999999    0.4921368333333334 O
   0.5830440000000002    0.3545419999999999    0.1588035000000000 O
   0.5830440000000002    0.3545419999999999    0.3254701666666666 O
   0.1244670000000000    0.4280370000000000    0.4620616666666665 O
   0.1244670000000000    0.4280370000000000    0.1287283333333331 O
   0.1244670000000000    0.4280370000000000    0.2953949999999997 O
   0.0680549999999990    0.6614070000000000    0.3504106666666667 O
   0.0680549999999990    0.6614070000000000    0.0170773333333333 O
   0.0680549999999990    0.6614070000000000    0.1837439999999999 O
   0.2100409999999990    0.8127910000000002    0.4614453333333333 O
   0.2100409999999990    0.8127910000000002    0.1281120000000000 O
   0.2100409999999990    0.8127910000000002    0.2947786666666666 O
   0.6015980000000001    0.2259720000000008    0.4516729999999999 O
   0.6015980000000001    0.2259720000000008    0.1183396666666666 O
   0.6015980000000001    0.2259720000000008    0.2850063333333332 O
   0.9369569999999992    0.8329630000000001    0.4600656666666665 O
   0.9369569999999992    0.8329630000000001    0.1267323333333332 O
   0.9369569999999992    0.8329630000000001    0.2933989999999998 O
   0.7478680000000001    0.3017190000000008    0.3611351666666666 O
   0.7478680000000001    0.3017190000000008    0.0278018333333332 O
   0.7478680000000001    0.3017190000000008    0.1944684999999999 O
   0.1286800000000000    0.6762770000000001    0.4139956666666667 O
   0.1286800000000000    0.6762770000000001    0.0806623333333334 O
   0.1286800000000000    0.6762770000000001    0.2473290000000000 O
   0.3732089999999991    0.0628869999999998    0.4831466666666666 O
   0.3732089999999991    0.0628869999999998    0.1498133333333332 O
   0.3732089999999991    0.0628869999999998    0.3164799999999999 O
   0.9236479999999990    0.9405430000000010    0.3818676666666666 O
   0.9236479999999990    0.9405430000000010    0.0485343333333333 O
   0.9236479999999990    0.9405430000000010    0.2152009999999999 O
   0.9223730000000000    0.1389929999999998    0.4043118333333334 O
   0.9223730000000000    0.1389929999999998    0.0709785000000001 O
   0.9223730000000000    0.1389929999999998    0.2376451666666667 O
   0.9020089999999999    0.2535110000000002    0.4515439999999999 O
   0.9020089999999999    0.2535110000000002    0.1182106666666665 O
   0.9020089999999999    0.2535110000000002    0.2848773333333331 O
   0.5288700000000001    0.4666590000000002    0.0142454999999999 O
   0.5288700000000001    0.4666590000000002    0.1809121666666665 O
   0.5288700000000001    0.4666590000000002    0.3475788333333332 O
   0.0372740000000000    0.6255510000000000    0.4636518333333334 O
   0.0372740000000000    0.6255510000000000    0.1303185000000001 O
   0.0372740000000000    0.6255510000000000    0.2969851666666667 O
   0.7350010000000000    0.9933010000000002    0.4450698333333334 O
   0.7350010000000000    0.9933010000000002    0.1117365000000000 O
   0.7350010000000000    0.9933010000000002    0.2784031666666665 O
   0.7777479999999998    0.7652890000000001    0.3769679999999999 O
   0.7777479999999998    0.7652890000000001    0.0436346666666665 O
   0.7777479999999998    0.7652890000000001    0.2103013333333331 O
   0.1128660000000000    0.3028190000000008    0.4007328333333333 O
   0.1128660000000000    0.3028190000000008    0.0673994999999999 O
   0.1128660000000000    0.3028190000000008    0.2340661666666666 O
   0.5646110000000001    0.9682820000000010    0.0068509999999999 O
   0.5646110000000001    0.9682820000000010    0.1735176666666665 O
   0.5646110000000001    0.9682820000000010    0.3401843333333331 O
   0.8562139999999991    0.5527519999999999    0.0078765000000000 O
   0.8562139999999991    0.5527519999999999    0.1745431666666666 O
   0.8562139999999991    0.5527519999999999    0.3412098333333334 O
   0.2876890000000000    0.7950530000000001    0.0080721666666666 O
   0.2876890000000000    0.7950530000000001    0.1747388333333333 O
   0.2876890000000000    0.7950530000000001    0.3414054999999999 O
   0.3119490000000000    0.7310080000000001    0.4326300000000000 O
   0.3119490000000000    0.7310080000000001    0.0992966666666668 O
   0.3119490000000000    0.7310080000000001    0.2659633333333334 O
   0.6368840000000000    0.4425230000000001    0.4344316666666667 O
   0.6368840000000000    0.4425230000000001    0.1010983333333334 O
   0.6368840000000000    0.4425230000000001    0.2677650000000000 O
   0.4617560000000002    0.0854470000000001    0.3604818333333334 O
   0.4617560000000002    0.0854470000000001    0.0271485000000000 O
   0.4617560000000002    0.0854470000000001    0.1938151666666667 O
   0.0542060000000000    0.0632090000000008    0.0022406666666666 O
   0.0542060000000000    0.0632090000000008    0.1689073333333333 O
   0.0542060000000000    0.0632090000000008    0.3355739999999999 O
   0.3509839999999990    0.8173380000000001    0.3776871666666666 O
   0.3509839999999990    0.8173380000000001    0.0443538333333333 O
   0.3509839999999990    0.8173380000000001    0.2110204999999999 O
   0.4720379999999992    0.9702880000000003    0.4590964999999999 O
   0.4720379999999992    0.9702880000000003    0.1257631666666665 O
   0.4720379999999992    0.9702880000000003    0.2924298333333332 O
   0.7638309999999990    0.7918760000000000    0.4977593333333334 O
   0.7638309999999990    0.7918760000000000    0.1644260000000001 O
   0.7638309999999990    0.7918760000000000    0.3310926666666667 O
   0.5759319999999999    0.1332180000000011    0.3981646666666665 O
   0.5759319999999999    0.1332180000000011    0.0648313333333332 O
   0.5759319999999999    0.1332180000000011    0.2314979999999998 O
   0.4226640000000000    0.2914620000000000    0.4704878333333332 O
   0.4226640000000000    0.2914620000000000    0.1371544999999999 O
   0.4226640000000000    0.2914620000000000    0.3038211666666665 O
   0.1914030000000000    0.9599750000000002    0.3821705000000000 O
   0.1914030000000000    0.9599750000000002    0.0488371666666667 O
   0.1914030000000000    0.9599750000000002    0.2155038333333333 O
   0.1594519999999990    0.5195680000000009    0.4024566666666664 O
   0.1594519999999990    0.5195680000000009    0.0691233333333331 O
   0.1594519999999990    0.5195680000000009    0.2357899999999997 O
   0.1384619999999999    0.1140920000000008    0.3875741666666664 O
   0.1384619999999999    0.1140920000000008    0.0542408333333331 O
   0.1384619999999999    0.1140920000000008    0.2209074999999998 O
   0.3836949999999998    0.2549929999999998    0.3674859999999999 O
   0.3836949999999998    0.2549929999999998    0.0341526666666666 O
   0.3836949999999998    0.2549929999999998    0.2008193333333332 O
   0.2678300000000000    0.5161840000000010    0.3634141666666665 O
   0.2678300000000000    0.5161840000000010    0.0300808333333331 O
   0.2678300000000000    0.5161840000000010    0.1967474999999999 O
   0.7179100000000000    0.0698520000000002    0.3794736666666667 O
   0.7179100000000000    0.0698520000000002    0.0461403333333333 O
   0.7179100000000000    0.0698520000000002    0.2128070000000000 O
   0.3878410000000001    0.4028710000000002    0.4137220000000000 O
   0.3878410000000001    0.4028710000000002    0.0803886666666667 O
   0.3878410000000001    0.4028710000000002    0.2470553333333334 O
   0.3703140000000000    0.9993610000000012    0.4102731666666664 O
   0.3703140000000000    0.9993610000000012    0.0769398333333330 O
   0.3703140000000000    0.9993610000000012    0.2436064999999998 O
   0.1724170000000000    0.2708770000000001    0.4488903333333332 O
   0.1724170000000000    0.2708770000000001    0.1155569999999999 O
   0.1724170000000000    0.2708770000000001    0.2822236666666665 O
   0.0296230000000000    0.0548199999999999    0.4515201666666667 O
   0.0296230000000000    0.0548199999999999    0.1181868333333333 O
   0.0296230000000000    0.0548199999999999    0.2848534999999999 O
   0.0428710000000000    0.8070050000000001    0.3654256666666668 O
   0.0428710000000000    0.8070050000000001    0.0320923333333334 O
   0.0428710000000000    0.8070050000000001    0.1987590000000000 O
   0.7001120000000000    0.1780890000000001    0.4931821666666666 O
   0.7001120000000000    0.1780890000000001    0.1598488333333332 O
   0.7001120000000000    0.1780890000000001    0.3265154999999999 O
   0.5427529999999994    0.6028380000000010    0.4488373333333331 O
   0.5427529999999994    0.6028380000000010    0.1155039999999998 O
   0.5427529999999994    0.6028380000000010    0.2821706666666665 O
   0.6677839999999992    0.7085150000000000    0.4745403333333333 O
   0.6677839999999992    0.7085150000000000    0.1412070000000000 O
   0.6677839999999992    0.7085150000000000    0.3078736666666667 O
   0.5019669999999992    0.2638999999999998    0.4076171666666668 O
   0.5019669999999992    0.2638999999999998    0.0742838333333334 O
   0.5019669999999992    0.2638999999999998    0.2409505000000000 O
   0.5481920000000000    0.8703910000000000    0.4364995000000000 O
   0.5481920000000000    0.8703910000000000    0.1031661666666667 O
   0.5481920000000000    0.8703910000000000    0.2698328333333334 O
   0.5340460000000001    0.6660159999999999    0.3939316666666666 O
   0.5340460000000001    0.6660159999999999    0.0605983333333332 O
   0.5340460000000001    0.6660159999999999    0.2272649999999999 O
   0.3606370000000000    0.5156370000000000    0.4399005000000000 O
   0.3606370000000000    0.5156370000000000    0.1065671666666668 O
   0.3606370000000000    0.5156370000000000    0.2732338333333333 O
   0.7773439999999990    0.3032550000000002    0.4024498333333333 O
   0.7773439999999990    0.3032550000000002    0.0691165000000000 O
   0.7773439999999990    0.3032550000000002    0.2357831666666667 O
   0.2641879999999999    0.1172580000000010    0.4253576666666665 O
   0.2641879999999999    0.1172580000000010    0.0920243333333332 O
   0.2641879999999999    0.1172580000000010    0.2586909999999998 O
   0.8271069999999990    0.3857580000000001    0.4689173333333334 O
   0.8271069999999990    0.3857580000000001    0.1355840000000000 O
   0.8271069999999990    0.3857580000000001    0.3022506666666668 O
   0.6517999999999999    0.5210360000000001    0.3818756666666667 O
   0.6517999999999999    0.5210360000000001    0.0485423333333333 O
   0.6517999999999999    0.5210360000000001    0.2152090000000001 O
   0.5605660000000001    0.8361070000000010    0.4034266666666664 O
   0.5605660000000001    0.8361070000000010    0.0700933333333331 O
   0.5605660000000001    0.8361070000000010    0.2367599999999997 O
