Ti90 O180
1.0
  10.7847349425586163    0.0000000000000000    0.0060328200944446
  -1.2247047225377732   10.4583487854001529    9.3482210382165096
   0.0000000000000000    0.0000000000000000   62.9170570674836966
Ti O
90 180
direct
   0.3479379999999991    0.8204740000000001    0.4811727500000001 Ti
   0.3479379999999991    0.8204740000000001    0.1478394166666669 Ti
   0.3479379999999991    0.8204740000000001    0.3145060833333335 Ti
   0.1008690000000000    0.1441720000000008    0.4508384166666667 Ti
   0.1008690000000000    0.1441720000000008    0.1175050833333333 Ti
   0.1008690000000000    0.1441720000000008    0.2841717499999999 Ti
   0.8065249999999994    0.4774350000000001    0.4146552500000001 Ti
   0.8065249999999994    0.4774350000000001    0.0813219166666668 Ti
   0.8065249999999994    0.4774350000000001    0.2479885833333334 Ti
   0.7909490000000001    0.2465539999999999    0.0458470833333335 Ti
   0.7909490000000001    0.2465539999999999    0.2125137500000003 Ti
   0.7909490000000001    0.2465539999999999    0.3791804166666669 Ti
   0.4398120000000000    0.7044890000000010    0.4485449166666666 Ti
   0.4398120000000000    0.7044890000000010    0.1152115833333332 Ti
   0.4398120000000000    0.7044890000000010    0.2818782499999999 Ti
   0.1631409999999990    0.5778510000000001    0.4915514166666668 Ti
   0.1631409999999990    0.5778510000000001    0.1582180833333335 Ti
   0.1631409999999990    0.5778510000000001    0.3248847500000001 Ti
   0.5602509999999991    0.0046750000000008    0.4301895833333334 Ti
   0.5602509999999991    0.0046750000000008    0.0968562500000000 Ti
   0.5602509999999991    0.0046750000000008    0.2635229166666667 Ti
   0.5211030000000000    0.4422479999999999    0.4935129166666669 Ti
   0.5211030000000000    0.4422479999999999    0.1601795833333335 Ti
   0.5211030000000000    0.4422479999999999    0.3268462500000002 Ti
   0.5445340000000000    0.3619320000000000    0.4538074166666667 Ti
   0.5445340000000000    0.3619320000000000    0.1204740833333332 Ti
   0.5445340000000000    0.3619320000000000    0.2871407499999999 Ti
   0.3685410000000002    0.5153020000000010    0.0436939166666665 Ti
   0.3685410000000002    0.5153020000000010    0.2103605833333331 Ti
   0.3685410000000002    0.5153020000000010    0.3770272499999999 Ti
   0.0395639999999990    0.6267690000000000    0.4207527500000001 Ti
   0.0395639999999990    0.6267690000000000    0.0874194166666667 Ti
   0.0395639999999990    0.6267690000000000    0.2540860833333334 Ti
   0.4267149999999991    0.1029350000000001    0.4599664166666668 Ti
   0.4267149999999991    0.1029350000000001    0.1266330833333334 Ti
   0.4267149999999991    0.1029350000000001    0.2932997500000001 Ti
   0.4301250000000000    0.9143660000000000    0.0348622500000000 Ti
   0.4301250000000000    0.9143660000000000    0.2015289166666667 Ti
   0.4301250000000000    0.9143660000000000    0.3681955833333334 Ti
   0.8723019999999996    0.9280300000000002    0.0050535833333335 Ti
   0.8723019999999996    0.9280300000000002    0.1717202500000001 Ti
   0.8723019999999996    0.9280300000000002    0.3383869166666666 Ti
   0.1865880000000000    0.8336970000000010    0.4193007499999998 Ti
   0.1865880000000000    0.8336970000000010    0.0859674166666665 Ti
   0.1865880000000000    0.8336970000000010    0.2526340833333331 Ti
   0.6539610000000002    0.6951250000000000    0.4063535833333333 Ti
   0.6539610000000002    0.6951250000000000    0.0730202500000000 Ti
   0.6539610000000002    0.6951250000000000    0.2396869166666667 Ti
   0.3001759999999999    0.1249779999999997    0.4089930833333336 Ti
   0.3001759999999999    0.1249779999999997    0.0756597500000002 Ti
   0.3001759999999999    0.1249779999999997    0.2423264166666668 Ti
   0.2299519999999999    0.7013280000000000    0.0380772500000002 Ti
   0.2299519999999999    0.7013280000000000    0.2047439166666669 Ti
   0.2299519999999999    0.7013280000000000    0.3714105833333335 Ti
   0.2223479999999999    0.3955090000000000    0.4437407500000002 Ti
   0.2223479999999999    0.3955090000000000    0.1104074166666668 Ti
   0.2223479999999999    0.3955090000000000    0.2770740833333335 Ti
   0.5601389999999993    0.3160910000000000    0.3965702500000001 Ti
   0.5601389999999993    0.3160910000000000    0.0632369166666668 Ti
   0.5601389999999993    0.3160910000000000    0.2299035833333335 Ti
   0.0458439999999990    0.0765540000000000    0.4022352500000002 Ti
   0.0458439999999990    0.0765540000000000    0.0689019166666668 Ti
   0.0458439999999990    0.0765540000000000    0.2355685833333335 Ti
   0.7670669999999988    0.1698310000000008    0.4398012500000000 Ti
   0.7670669999999988    0.1698310000000008    0.1064679166666667 Ti
   0.7670669999999988    0.1698310000000008    0.2731345833333334 Ti
   0.0141669999999990    0.1413960000000010    0.0035009166666666 Ti
   0.0141669999999990    0.1413960000000010    0.1701675833333333 Ti
   0.0141669999999990    0.1413960000000010    0.3368342500000000 Ti
   0.9002000000000000    0.6815009999999999    0.0059665833333335 Ti
   0.9002000000000000    0.6815009999999999    0.1726332500000003 Ti
   0.9002000000000000    0.6815009999999999    0.3392999166666669 Ti
   0.9040300000000002    0.8948880000000002    0.3978505833333335 Ti
   0.9040300000000002    0.8948880000000002    0.0645172500000001 Ti
   0.9040300000000002    0.8948880000000002    0.2311839166666668 Ti
   0.2487680000000000    0.3399710000000001    0.0017117500000002 Ti
   0.2487680000000000    0.3399710000000001    0.1683784166666667 Ti
   0.2487680000000000    0.3399710000000001    0.3350450833333334 Ti
   0.6409000000000002    0.7353340000000003    0.4786554166666668 Ti
   0.6409000000000002    0.7353340000000003    0.1453220833333334 Ti
   0.6409000000000002    0.7353340000000003    0.3119887500000001 Ti
   0.6138279999999990    0.8367120000000000    0.0089664166666668 Ti
   0.6138279999999990    0.8367120000000000    0.1756330833333335 Ti
   0.6138279999999990    0.8367120000000000    0.3422997500000001 Ti
   0.5144870000000001    0.1248010000000002    0.0280100833333335 Ti
   0.5144870000000001    0.1248010000000002    0.1946767500000001 Ti
   0.5144870000000001    0.1248010000000002    0.3613434166666668 Ti
   0.7612200000000001    0.3121970000000009    0.4934225833333332 Ti
   0.7612200000000001    0.3121970000000009    0.1600892499999999 Ti
   0.7612200000000001    0.3121970000000009    0.3267559166666666 Ti
   0.8739560000000002    0.9910120000000001    0.0261017500000002 O
   0.8739560000000002    0.9910120000000001    0.1927684166666668 O
   0.8739560000000002    0.9910120000000001    0.3594350833333334 O
   0.8036150000000000    0.7133380000000001    0.4776930833333333 O
   0.8036150000000000    0.7133380000000001    0.1443597500000000 O
   0.8036150000000000    0.7133380000000001    0.3110264166666664 O
   0.9485159999999990    0.2054380000000000    0.0527374166666668 O
   0.9485159999999990    0.2054380000000000    0.2194040833333334 O
   0.9485159999999990    0.2054380000000000    0.3860707500000002 O
   0.2662120000000000    0.5014220000000009    0.0236367500000000 O
   0.2662120000000000    0.5014220000000009    0.1903034166666667 O
   0.2662120000000000    0.5014220000000009    0.3569700833333334 O
   0.8931300000000003    0.5236930000000000    0.4326829166666669 O
   0.8931300000000003    0.5236930000000000    0.0993495833333334 O
   0.8931300000000003    0.5236930000000000    0.2660162500000002 O
   0.3974479999999990    0.6925810000000001    0.0201235833333334 O
   0.3974479999999990    0.6925810000000001    0.1867902500000002 O
   0.3974479999999990    0.6925810000000001    0.3534569166666668 O
   0.2208709999999990    0.2082220000000000    0.0414819166666669 O
   0.2208709999999990    0.2082220000000000    0.2081485833333335 O
   0.2208709999999990    0.2082220000000000    0.3748152500000003 O
   0.5392760000000002    0.7732650000000000    0.0444099166666667 O
   0.5392760000000002    0.7732650000000000    0.2110765833333333 O
   0.5392760000000002    0.7732650000000000    0.3777432500000001 O
   0.5830440000000002    0.3545419999999999    0.0297969166666668 O
   0.5830440000000002    0.3545419999999999    0.1964635833333335 O
   0.5830440000000002    0.3545419999999999    0.3631302500000000 O
   0.1244670000000000    0.4280370000000000    0.4997217500000000 O
   0.1244670000000000    0.4280370000000000    0.1663884166666666 O
   0.1244670000000000    0.4280370000000000    0.3330550833333332 O
   0.0680549999999990    0.6614070000000000    0.3880707500000001 O
   0.0680549999999990    0.6614070000000000    0.0547374166666667 O
   0.0680549999999990    0.6614070000000000    0.2214040833333334 O
   0.2100409999999990    0.8127910000000002    0.4991054166666667 O
   0.2100409999999990    0.8127910000000002    0.1657720833333335 O
   0.2100409999999990    0.8127910000000002    0.3324387500000001 O
   0.6015980000000001    0.2259720000000008    0.4893330833333334 O
   0.6015980000000001    0.2259720000000008    0.1559997500000000 O
   0.6015980000000001    0.2259720000000008    0.3226664166666666 O
   0.9369569999999992    0.8329630000000001    0.4977257500000000 O
   0.9369569999999992    0.8329630000000001    0.1643924166666666 O
   0.9369569999999992    0.8329630000000001    0.3310590833333332 O
   0.7478680000000001    0.3017190000000008    0.3987952500000000 O
   0.7478680000000001    0.3017190000000008    0.0654619166666667 O
   0.7478680000000001    0.3017190000000008    0.2321285833333334 O
   0.1286800000000000    0.6762770000000001    0.4516557500000001 O
   0.1286800000000000    0.6762770000000001    0.1183224166666668 O
   0.1286800000000000    0.6762770000000001    0.2849890833333335 O
   0.3732089999999991    0.0628869999999998    0.0208067500000000 O
   0.3732089999999991    0.0628869999999998    0.1874734166666667 O
   0.3732089999999991    0.0628869999999998    0.3541400833333334 O
   0.9236479999999990    0.9405430000000010    0.4195277500000001 O
   0.9236479999999990    0.9405430000000010    0.0861944166666667 O
   0.9236479999999990    0.9405430000000010    0.2528610833333333 O
   0.9223730000000000    0.1389929999999998    0.4419719166666669 O
   0.9223730000000000    0.1389929999999998    0.1086385833333335 O
   0.9223730000000000    0.1389929999999998    0.2753052500000002 O
   0.9020089999999999    0.2535110000000002    0.4892040833333333 O
   0.9020089999999999    0.2535110000000002    0.1558707499999999 O
   0.9020089999999999    0.2535110000000002    0.3225374166666666 O
   0.5288700000000001    0.4666590000000002    0.0519055833333333 O
   0.5288700000000001    0.4666590000000002    0.2185722500000000 O
   0.5288700000000001    0.4666590000000002    0.3852389166666667 O
   0.0372740000000000    0.6255510000000000    0.0013119166666669 O
   0.0372740000000000    0.6255510000000000    0.1679785833333336 O
   0.0372740000000000    0.6255510000000000    0.3346452500000001 O
   0.7350010000000000    0.9933010000000002    0.4827299166666668 O
   0.7350010000000000    0.9933010000000002    0.1493965833333335 O
   0.7350010000000000    0.9933010000000002    0.3160632500000000 O
   0.7777479999999998    0.7652890000000001    0.4146280833333333 O
   0.7777479999999998    0.7652890000000001    0.0812947500000000 O
   0.7777479999999998    0.7652890000000001    0.2479614166666666 O
   0.1128660000000000    0.3028190000000008    0.4383929166666667 O
   0.1128660000000000    0.3028190000000008    0.1050595833333334 O
   0.1128660000000000    0.3028190000000008    0.2717262500000001 O
   0.5646110000000001    0.9682820000000010    0.0445110833333333 O
   0.5646110000000001    0.9682820000000010    0.2111777499999999 O
   0.5646110000000001    0.9682820000000010    0.3778444166666666 O
   0.8562139999999991    0.5527519999999999    0.0455365833333335 O
   0.8562139999999991    0.5527519999999999    0.2122032500000001 O
   0.8562139999999991    0.5527519999999999    0.3788699166666669 O
   0.2876890000000000    0.7950530000000001    0.0457322500000000 O
   0.2876890000000000    0.7950530000000001    0.2123989166666667 O
   0.2876890000000000    0.7950530000000001    0.3790655833333334 O
   0.3119490000000000    0.7310080000000001    0.4702900833333335 O
   0.3119490000000000    0.7310080000000001    0.1369567500000002 O
   0.3119490000000000    0.7310080000000001    0.3036234166666668 O
   0.6368840000000000    0.4425230000000001    0.4720917500000001 O
   0.6368840000000000    0.4425230000000001    0.1387584166666669 O
   0.6368840000000000    0.4425230000000001    0.3054250833333335 O
   0.4617560000000002    0.0854470000000001    0.3981419166666668 O
   0.4617560000000002    0.0854470000000001    0.0648085833333335 O
   0.4617560000000002    0.0854470000000001    0.2314752500000002 O
   0.0542060000000000    0.0632090000000008    0.0399007500000000 O
   0.0542060000000000    0.0632090000000008    0.2065674166666668 O
   0.0542060000000000    0.0632090000000008    0.3732340833333334 O
   0.3509839999999990    0.8173380000000001    0.4153472500000000 O
   0.3509839999999990    0.8173380000000001    0.0820139166666667 O
   0.3509839999999990    0.8173380000000001    0.2486805833333333 O
   0.4720379999999992    0.9702880000000003    0.4967565833333333 O
   0.4720379999999992    0.9702880000000003    0.1634232500000000 O
   0.4720379999999992    0.9702880000000003    0.3300899166666666 O
   0.7638309999999990    0.7918760000000000    0.0354194166666668 O
   0.7638309999999990    0.7918760000000000    0.2020860833333335 O
   0.7638309999999990    0.7918760000000000    0.3687527500000002 O
   0.5759319999999999    0.1332180000000011    0.4358247500000000 O
   0.5759319999999999    0.1332180000000011    0.1024914166666666 O
   0.5759319999999999    0.1332180000000011    0.2691580833333332 O
   0.4226640000000000    0.2914620000000000    0.0081479166666667 O
   0.4226640000000000    0.2914620000000000    0.1748145833333334 O
   0.4226640000000000    0.2914620000000000    0.3414812500000000 O
   0.1914030000000000    0.9599750000000002    0.4198305833333335 O
   0.1914030000000000    0.9599750000000002    0.0864972500000001 O
   0.1914030000000000    0.9599750000000002    0.2531639166666668 O
   0.1594519999999990    0.5195680000000009    0.4401167499999998 O
   0.1594519999999990    0.5195680000000009    0.1067834166666665 O
   0.1594519999999990    0.5195680000000009    0.2734500833333332 O
   0.1384619999999999    0.1140920000000008    0.4252342499999999 O
   0.1384619999999999    0.1140920000000008    0.0919009166666666 O
   0.1384619999999999    0.1140920000000008    0.2585675833333332 O
   0.3836949999999998    0.2549929999999998    0.4051460833333334 O
   0.3836949999999998    0.2549929999999998    0.0718127500000000 O
   0.3836949999999998    0.2549929999999998    0.2384794166666667 O
   0.2678300000000000    0.5161840000000010    0.4010742500000000 O
   0.2678300000000000    0.5161840000000010    0.0677409166666666 O
   0.2678300000000000    0.5161840000000010    0.2344075833333333 O
   0.7179100000000000    0.0698520000000002    0.4171337500000002 O
   0.7179100000000000    0.0698520000000002    0.0838004166666668 O
   0.7179100000000000    0.0698520000000002    0.2504670833333335 O
   0.3878410000000001    0.4028710000000002    0.4513820833333335 O
   0.3878410000000001    0.4028710000000002    0.1180487500000001 O
   0.3878410000000001    0.4028710000000002    0.2847154166666669 O
   0.3703140000000000    0.9993610000000012    0.4479332499999998 O
   0.3703140000000000    0.9993610000000012    0.1145999166666665 O
   0.3703140000000000    0.9993610000000012    0.2812665833333333 O
   0.1724170000000000    0.2708770000000001    0.4865504166666667 O
   0.1724170000000000    0.2708770000000001    0.1532170833333333 O
   0.1724170000000000    0.2708770000000001    0.3198837500000000 O
   0.0296230000000000    0.0548199999999999    0.4891802500000002 O
   0.0296230000000000    0.0548199999999999    0.1558469166666668 O
   0.0296230000000000    0.0548199999999999    0.3225135833333334 O
   0.0428710000000000    0.8070050000000001    0.4030857500000002 O
   0.0428710000000000    0.8070050000000001    0.0697524166666668 O
   0.0428710000000000    0.8070050000000001    0.2364190833333335 O
   0.7001120000000000    0.1780890000000001    0.0308422500000000 O
   0.7001120000000000    0.1780890000000001    0.1975089166666666 O
   0.7001120000000000    0.1780890000000001    0.3641755833333333 O
   0.5427529999999994    0.6028380000000010    0.4864974166666666 O
   0.5427529999999994    0.6028380000000010    0.1531640833333333 O
   0.5427529999999994    0.6028380000000010    0.3198307499999999 O
   0.6677839999999992    0.7085150000000000    0.0122004166666668 O
   0.6677839999999992    0.7085150000000000    0.1788670833333335 O
   0.6677839999999992    0.7085150000000000    0.3455337500000001 O
   0.5019669999999992    0.2638999999999998    0.4452772500000002 O
   0.5019669999999992    0.2638999999999998    0.1119439166666669 O
   0.5019669999999992    0.2638999999999998    0.2786105833333334 O
   0.5481920000000000    0.8703910000000000    0.4741595833333335 O
   0.5481920000000000    0.8703910000000000    0.1408262500000001 O
   0.5481920000000000    0.8703910000000000    0.3074929166666669 O
   0.5340460000000001    0.6660159999999999    0.4315917500000001 O
   0.5340460000000001    0.6660159999999999    0.0982584166666667 O
   0.5340460000000001    0.6660159999999999    0.2649250833333334 O
   0.3606370000000000    0.5156370000000000    0.4775605833333335 O
   0.3606370000000000    0.5156370000000000    0.1442272500000002 O
   0.3606370000000000    0.5156370000000000    0.3108939166666668 O
   0.7773439999999990    0.3032550000000002    0.4401099166666668 O
   0.7773439999999990    0.3032550000000002    0.1067765833333335 O
   0.7773439999999990    0.3032550000000002    0.2734432500000001 O
   0.2641879999999999    0.1172580000000010    0.4630177500000000 O
   0.2641879999999999    0.1172580000000010    0.1296844166666667 O
   0.2641879999999999    0.1172580000000010    0.2963510833333333 O
   0.8271069999999990    0.3857580000000001    0.0065774166666668 O
   0.8271069999999990    0.3857580000000001    0.1732440833333334 O
   0.8271069999999990    0.3857580000000001    0.3399107500000003 O
   0.6517999999999999    0.5210360000000001    0.4195357500000002 O
   0.6517999999999999    0.5210360000000001    0.0862024166666668 O
   0.6517999999999999    0.5210360000000001    0.2528690833333336 O
   0.5605660000000001    0.8361070000000010    0.4410867499999998 O
   0.5605660000000001    0.8361070000000010    0.1077534166666665 O
   0.5605660000000001    0.8361070000000010    0.2744200833333332 O
