Ti90 O180
1.0
  10.7847349425586163    0.0000000000000000    0.0060328200944446
  -1.2247047225377732   10.4583487854001529    9.3482210382165096
   0.0000000000000000    0.0000000000000000   62.9170570674836966
Ti O
90 180
direct
   0.3479379999999991    0.8204740000000001    0.0125840833333334 Ti
   0.3479379999999991    0.8204740000000001    0.1792507500000001 Ti
   0.3479379999999991    0.8204740000000001    0.3459174166666668 Ti
   0.1008690000000000    0.1441720000000008    0.4822497499999999 Ti
   0.1008690000000000    0.1441720000000008    0.1489164166666666 Ti
   0.1008690000000000    0.1441720000000008    0.3155830833333332 Ti
   0.8065249999999994    0.4774350000000001    0.4460665833333334 Ti
   0.8065249999999994    0.4774350000000001    0.1127332500000001 Ti
   0.8065249999999994    0.4774350000000001    0.2793999166666667 Ti
   0.7909490000000001    0.2465539999999999    0.0772584166666667 Ti
   0.7909490000000001    0.2465539999999999    0.2439250833333335 Ti
   0.7909490000000001    0.2465539999999999    0.4105917500000001 Ti
   0.4398120000000000    0.7044890000000010    0.4799562499999999 Ti
   0.4398120000000000    0.7044890000000010    0.1466229166666665 Ti
   0.4398120000000000    0.7044890000000010    0.3132895833333332 Ti
   0.1631409999999990    0.5778510000000001    0.0229627500000001 Ti
   0.1631409999999990    0.5778510000000001    0.1896294166666667 Ti
   0.1631409999999990    0.5778510000000001    0.3562960833333333 Ti
   0.5602509999999991    0.0046750000000008    0.4616009166666666 Ti
   0.5602509999999991    0.0046750000000008    0.1282675833333333 Ti
   0.5602509999999991    0.0046750000000008    0.2949342500000000 Ti
   0.5211030000000000    0.4422479999999999    0.0249242500000001 Ti
   0.5211030000000000    0.4422479999999999    0.1915909166666668 Ti
   0.5211030000000000    0.4422479999999999    0.3582575833333335 Ti
   0.5445340000000000    0.3619320000000000    0.4852187499999999 Ti
   0.5445340000000000    0.3619320000000000    0.1518854166666665 Ti
   0.5445340000000000    0.3619320000000000    0.3185520833333332 Ti
   0.3685410000000002    0.5153020000000010    0.0751052499999997 Ti
   0.3685410000000002    0.5153020000000010    0.2417719166666664 Ti
   0.3685410000000002    0.5153020000000010    0.4084385833333332 Ti
   0.0395639999999990    0.6267690000000000    0.4521640833333334 Ti
   0.0395639999999990    0.6267690000000000    0.1188307500000000 Ti
   0.0395639999999990    0.6267690000000000    0.2854974166666667 Ti
   0.4267149999999991    0.1029350000000001    0.4913777500000001 Ti
   0.4267149999999991    0.1029350000000001    0.1580444166666666 Ti
   0.4267149999999991    0.1029350000000001    0.3247110833333334 Ti
   0.4301250000000000    0.9143660000000000    0.0662735833333333 Ti
   0.4301250000000000    0.9143660000000000    0.2329402500000000 Ti
   0.4301250000000000    0.9143660000000000    0.3996069166666666 Ti
   0.8723019999999996    0.9280300000000002    0.0364649166666667 Ti
   0.8723019999999996    0.9280300000000002    0.2031315833333334 Ti
   0.8723019999999996    0.9280300000000002    0.3697982499999999 Ti
   0.1865880000000000    0.8336970000000010    0.4507120833333331 Ti
   0.1865880000000000    0.8336970000000010    0.1173787499999998 Ti
   0.1865880000000000    0.8336970000000010    0.2840454166666664 Ti
   0.6539610000000002    0.6951250000000000    0.4377649166666666 Ti
   0.6539610000000002    0.6951250000000000    0.1044315833333333 Ti
   0.6539610000000002    0.6951250000000000    0.2710982500000000 Ti
   0.3001759999999999    0.1249779999999997    0.4404044166666668 Ti
   0.3001759999999999    0.1249779999999997    0.1070710833333335 Ti
   0.3001759999999999    0.1249779999999997    0.2737377500000001 Ti
   0.2299519999999999    0.7013280000000000    0.0694885833333334 Ti
   0.2299519999999999    0.7013280000000000    0.2361552500000001 Ti
   0.2299519999999999    0.7013280000000000    0.4028219166666668 Ti
   0.2223479999999999    0.3955090000000000    0.4751520833333335 Ti
   0.2223479999999999    0.3955090000000000    0.1418187500000000 Ti
   0.2223479999999999    0.3955090000000000    0.3084854166666667 Ti
   0.5601389999999993    0.3160910000000000    0.4279815833333334 Ti
   0.5601389999999993    0.3160910000000000    0.0946482500000001 Ti
   0.5601389999999993    0.3160910000000000    0.2613149166666667 Ti
   0.0458439999999990    0.0765540000000000    0.4336465833333334 Ti
   0.0458439999999990    0.0765540000000000    0.1003132500000001 Ti
   0.0458439999999990    0.0765540000000000    0.2669799166666668 Ti
   0.7670669999999988    0.1698310000000008    0.4712125833333333 Ti
   0.7670669999999988    0.1698310000000008    0.1378792500000000 Ti
   0.7670669999999988    0.1698310000000008    0.3045459166666666 Ti
   0.0141669999999990    0.1413960000000010    0.0349122499999999 Ti
   0.0141669999999990    0.1413960000000010    0.2015789166666666 Ti
   0.0141669999999990    0.1413960000000010    0.3682455833333332 Ti
   0.9002000000000000    0.6815009999999999    0.0373779166666668 Ti
   0.9002000000000000    0.6815009999999999    0.2040445833333335 Ti
   0.9002000000000000    0.6815009999999999    0.3707112500000002 Ti
   0.9040300000000002    0.8948880000000002    0.4292619166666667 Ti
   0.9040300000000002    0.8948880000000002    0.0959285833333333 Ti
   0.9040300000000002    0.8948880000000002    0.2625952500000001 Ti
   0.2487680000000000    0.3399710000000001    0.0331230833333334 Ti
   0.2487680000000000    0.3399710000000001    0.1997897500000000 Ti
   0.2487680000000000    0.3399710000000001    0.3664564166666667 Ti
   0.6409000000000002    0.7353340000000003    0.0100667500000001 Ti
   0.6409000000000002    0.7353340000000003    0.1767334166666666 Ti
   0.6409000000000002    0.7353340000000003    0.3434000833333334 Ti
   0.6138279999999990    0.8367120000000000    0.0403777500000000 Ti
   0.6138279999999990    0.8367120000000000    0.2070444166666668 Ti
   0.6138279999999990    0.8367120000000000    0.3737110833333334 Ti
   0.5144870000000001    0.1248010000000002    0.0594214166666667 Ti
   0.5144870000000001    0.1248010000000002    0.2260880833333334 Ti
   0.5144870000000001    0.1248010000000002    0.3927547500000000 Ti
   0.7612200000000001    0.3121970000000009    0.0248339166666665 Ti
   0.7612200000000001    0.3121970000000009    0.1915005833333331 Ti
   0.7612200000000001    0.3121970000000009    0.3581672499999998 Ti
   0.8739560000000002    0.9910120000000001    0.0575130833333334 O
   0.8739560000000002    0.9910120000000001    0.2241797500000001 O
   0.8739560000000002    0.9910120000000001    0.3908464166666667 O
   0.8036150000000000    0.7133380000000001    0.0091044166666666 O
   0.8036150000000000    0.7133380000000001    0.1757710833333332 O
   0.8036150000000000    0.7133380000000001    0.3424377499999997 O
   0.9485159999999990    0.2054380000000000    0.0841487500000001 O
   0.9485159999999990    0.2054380000000000    0.2508154166666666 O
   0.9485159999999990    0.2054380000000000    0.4174820833333335 O
   0.2662120000000000    0.5014220000000009    0.0550480833333332 O
   0.2662120000000000    0.5014220000000009    0.2217147500000000 O
   0.2662120000000000    0.5014220000000009    0.3883814166666666 O
   0.8931300000000003    0.5236930000000000    0.4640942500000001 O
   0.8931300000000003    0.5236930000000000    0.1307609166666667 O
   0.8931300000000003    0.5236930000000000    0.2974275833333334 O
   0.3974479999999990    0.6925810000000001    0.0515349166666667 O
   0.3974479999999990    0.6925810000000001    0.2182015833333335 O
   0.3974479999999990    0.6925810000000001    0.3848682500000001 O
   0.2208709999999990    0.2082220000000000    0.0728932500000001 O
   0.2208709999999990    0.2082220000000000    0.2395599166666668 O
   0.2208709999999990    0.2082220000000000    0.4062265833333335 O
   0.5392760000000002    0.7732650000000000    0.0758212500000000 O
   0.5392760000000002    0.7732650000000000    0.2424879166666666 O
   0.5392760000000002    0.7732650000000000    0.4091545833333333 O
   0.5830440000000002    0.3545419999999999    0.0612082500000001 O
   0.5830440000000002    0.3545419999999999    0.2278749166666668 O
   0.5830440000000002    0.3545419999999999    0.3945415833333333 O
   0.1244670000000000    0.4280370000000000    0.0311330833333333 O
   0.1244670000000000    0.4280370000000000    0.1977997499999998 O
   0.1244670000000000    0.4280370000000000    0.3644664166666665 O
   0.0680549999999990    0.6614070000000000    0.4194820833333334 O
   0.0680549999999990    0.6614070000000000    0.0861487500000000 O
   0.0680549999999990    0.6614070000000000    0.2528154166666666 O
   0.2100409999999990    0.8127910000000002    0.0305167500000000 O
   0.2100409999999990    0.8127910000000002    0.1971834166666667 O
   0.2100409999999990    0.8127910000000002    0.3638500833333334 O
   0.6015980000000001    0.2259720000000008    0.0207444166666666 O
   0.6015980000000001    0.2259720000000008    0.1874110833333333 O
   0.6015980000000001    0.2259720000000008    0.3540777499999999 O
   0.9369569999999992    0.8329630000000001    0.0291370833333332 O
   0.9369569999999992    0.8329630000000001    0.1958037499999999 O
   0.9369569999999992    0.8329630000000001    0.3624704166666665 O
   0.7478680000000001    0.3017190000000008    0.4302065833333333 O
   0.7478680000000001    0.3017190000000008    0.0968732500000000 O
   0.7478680000000001    0.3017190000000008    0.2635399166666667 O
   0.1286800000000000    0.6762770000000001    0.4830670833333334 O
   0.1286800000000000    0.6762770000000001    0.1497337500000001 O
   0.1286800000000000    0.6762770000000001    0.3164004166666667 O
   0.3732089999999991    0.0628869999999998    0.0522180833333333 O
   0.3732089999999991    0.0628869999999998    0.2188847500000000 O
   0.3732089999999991    0.0628869999999998    0.3855514166666666 O
   0.9236479999999990    0.9405430000000010    0.4509390833333333 O
   0.9236479999999990    0.9405430000000010    0.1176057500000000 O
   0.9236479999999990    0.9405430000000010    0.2842724166666666 O
   0.9223730000000000    0.1389929999999998    0.4733832500000001 O
   0.9223730000000000    0.1389929999999998    0.1400499166666668 O
   0.9223730000000000    0.1389929999999998    0.3067165833333335 O
   0.9020089999999999    0.2535110000000002    0.0206154166666666 O
   0.9020089999999999    0.2535110000000002    0.1872820833333332 O
   0.9020089999999999    0.2535110000000002    0.3539487499999998 O
   0.5288700000000001    0.4666590000000002    0.0833169166666666 O
   0.5288700000000001    0.4666590000000002    0.2499835833333333 O
   0.5288700000000001    0.4666590000000002    0.4166502499999999 O
   0.0372740000000000    0.6255510000000000    0.0327232500000001 O
   0.0372740000000000    0.6255510000000000    0.1993899166666668 O
   0.0372740000000000    0.6255510000000000    0.3660565833333334 O
   0.7350010000000000    0.9933010000000002    0.0141412500000001 O
   0.7350010000000000    0.9933010000000002    0.1808079166666667 O
   0.7350010000000000    0.9933010000000002    0.3474745833333333 O
   0.7777479999999998    0.7652890000000001    0.4460394166666666 O
   0.7777479999999998    0.7652890000000001    0.1127060833333333 O
   0.7777479999999998    0.7652890000000001    0.2793727499999998 O
   0.1128660000000000    0.3028190000000008    0.4698042500000000 O
   0.1128660000000000    0.3028190000000008    0.1364709166666667 O
   0.1128660000000000    0.3028190000000008    0.3031375833333333 O
   0.5646110000000001    0.9682820000000010    0.0759224166666666 O
   0.5646110000000001    0.9682820000000010    0.2425890833333332 O
   0.5646110000000001    0.9682820000000010    0.4092557499999998 O
   0.8562139999999991    0.5527519999999999    0.0769479166666667 O
   0.8562139999999991    0.5527519999999999    0.2436145833333334 O
   0.8562139999999991    0.5527519999999999    0.4102812500000002 O
   0.2876890000000000    0.7950530000000001    0.0771435833333333 O
   0.2876890000000000    0.7950530000000001    0.2438102500000000 O
   0.2876890000000000    0.7950530000000001    0.4104769166666666 O
   0.3119490000000000    0.7310080000000001    0.0017014166666667 O
   0.3119490000000000    0.7310080000000001    0.1683680833333335 O
   0.3119490000000000    0.7310080000000001    0.3350347500000001 O
   0.6368840000000000    0.4425230000000001    0.0035030833333334 O
   0.6368840000000000    0.4425230000000001    0.1701697500000001 O
   0.6368840000000000    0.4425230000000001    0.3368364166666667 O
   0.4617560000000002    0.0854470000000001    0.4295532500000001 O
   0.4617560000000002    0.0854470000000001    0.0962199166666668 O
   0.4617560000000002    0.0854470000000001    0.2628865833333334 O
   0.0542060000000000    0.0632090000000008    0.0713120833333333 O
   0.0542060000000000    0.0632090000000008    0.2379787500000000 O
   0.0542060000000000    0.0632090000000008    0.4046454166666666 O
   0.3509839999999990    0.8173380000000001    0.4467585833333333 O
   0.3509839999999990    0.8173380000000001    0.1134252500000000 O
   0.3509839999999990    0.8173380000000001    0.2800919166666666 O
   0.4720379999999992    0.9702880000000003    0.0281679166666666 O
   0.4720379999999992    0.9702880000000003    0.1948345833333333 O
   0.4720379999999992    0.9702880000000003    0.3615012499999999 O
   0.7638309999999990    0.7918760000000000    0.0668307500000001 O
   0.7638309999999990    0.7918760000000000    0.2334974166666668 O
   0.7638309999999990    0.7918760000000000    0.4001640833333334 O
   0.5759319999999999    0.1332180000000011    0.4672360833333332 O
   0.5759319999999999    0.1332180000000011    0.1339027499999999 O
   0.5759319999999999    0.1332180000000011    0.3005694166666665 O
   0.4226640000000000    0.2914620000000000    0.0395592499999999 O
   0.4226640000000000    0.2914620000000000    0.2062259166666666 O
   0.4226640000000000    0.2914620000000000    0.3728925833333332 O
   0.1914030000000000    0.9599750000000002    0.4512419166666667 O
   0.1914030000000000    0.9599750000000002    0.1179085833333334 O
   0.1914030000000000    0.9599750000000002    0.2845752500000001 O
   0.1594519999999990    0.5195680000000009    0.4715280833333331 O
   0.1594519999999990    0.5195680000000009    0.1381947499999998 O
   0.1594519999999990    0.5195680000000009    0.3048614166666664 O
   0.1384619999999999    0.1140920000000008    0.4566455833333332 O
   0.1384619999999999    0.1140920000000008    0.1233122499999998 O
   0.1384619999999999    0.1140920000000008    0.2899789166666665 O
   0.3836949999999998    0.2549929999999998    0.4365574166666666 O
   0.3836949999999998    0.2549929999999998    0.1032240833333333 O
   0.3836949999999998    0.2549929999999998    0.2698907500000000 O
   0.2678300000000000    0.5161840000000010    0.4324855833333333 O
   0.2678300000000000    0.5161840000000010    0.0991522499999999 O
   0.2678300000000000    0.5161840000000010    0.2658189166666666 O
   0.7179100000000000    0.0698520000000002    0.4485450833333334 O
   0.7179100000000000    0.0698520000000002    0.1152117500000001 O
   0.7179100000000000    0.0698520000000002    0.2818784166666667 O
   0.3878410000000001    0.4028710000000002    0.4827934166666668 O
   0.3878410000000001    0.4028710000000002    0.1494600833333334 O
   0.3878410000000001    0.4028710000000002    0.3161267500000001 O
   0.3703140000000000    0.9993610000000012    0.4793445833333331 O
   0.3703140000000000    0.9993610000000012    0.1460112499999997 O
   0.3703140000000000    0.9993610000000012    0.3126779166666666 O
   0.1724170000000000    0.2708770000000001    0.0179617499999999 O
   0.1724170000000000    0.2708770000000001    0.1846284166666666 O
   0.1724170000000000    0.2708770000000001    0.3512950833333333 O
   0.0296230000000000    0.0548199999999999    0.0205915833333334 O
   0.0296230000000000    0.0548199999999999    0.1872582500000000 O
   0.0296230000000000    0.0548199999999999    0.3539249166666666 O
   0.0428710000000000    0.8070050000000001    0.4344970833333335 O
   0.0428710000000000    0.8070050000000001    0.1011637500000001 O
   0.0428710000000000    0.8070050000000001    0.2678304166666667 O
   0.7001120000000000    0.1780890000000001    0.0622535833333333 O
   0.7001120000000000    0.1780890000000001    0.2289202499999999 O
   0.7001120000000000    0.1780890000000001    0.3955869166666666 O
   0.5427529999999994    0.6028380000000010    0.0179087499999999 O
   0.5427529999999994    0.6028380000000010    0.1845754166666665 O
   0.5427529999999994    0.6028380000000010    0.3512420833333332 O
   0.6677839999999992    0.7085150000000000    0.0436117500000001 O
   0.6677839999999992    0.7085150000000000    0.2102784166666667 O
   0.6677839999999992    0.7085150000000000    0.3769450833333334 O
   0.5019669999999992    0.2638999999999998    0.4766885833333335 O
   0.5019669999999992    0.2638999999999998    0.1433552500000001 O
   0.5019669999999992    0.2638999999999998    0.3100219166666667 O
   0.5481920000000000    0.8703910000000000    0.0055709166666667 O
   0.5481920000000000    0.8703910000000000    0.1722375833333334 O
   0.5481920000000000    0.8703910000000000    0.3389042500000001 O
   0.5340460000000001    0.6660159999999999    0.4630030833333333 O
   0.5340460000000001    0.6660159999999999    0.1296697499999999 O
   0.5340460000000001    0.6660159999999999    0.2963364166666667 O
   0.3606370000000000    0.5156370000000000    0.0089719166666668 O
   0.3606370000000000    0.5156370000000000    0.1756385833333335 O
   0.3606370000000000    0.5156370000000000    0.3423052500000001 O
   0.7773439999999990    0.3032550000000002    0.4715212500000001 O
   0.7773439999999990    0.3032550000000002    0.1381879166666667 O
   0.7773439999999990    0.3032550000000002    0.3048545833333334 O
   0.2641879999999999    0.1172580000000010    0.4944290833333332 O
   0.2641879999999999    0.1172580000000010    0.1610957499999999 O
   0.2641879999999999    0.1172580000000010    0.3277624166666665 O
   0.8271069999999990    0.3857580000000001    0.0379887500000001 O
   0.8271069999999990    0.3857580000000001    0.2046554166666667 O
   0.8271069999999990    0.3857580000000001    0.3713220833333335 O
   0.6517999999999999    0.5210360000000001    0.4509470833333334 O
   0.6517999999999999    0.5210360000000001    0.1176137500000000 O
   0.6517999999999999    0.5210360000000001    0.2842804166666668 O
   0.5605660000000001    0.8361070000000010    0.4724980833333331 O
   0.5605660000000001    0.8361070000000010    0.1391647499999998 O
   0.5605660000000001    0.8361070000000010    0.3058314166666665 O
