Ti90 O180
1.0
  10.7847349425586163    0.0000000000000000    0.0060328200944446
  -1.2247047225377732   10.4583487854001529    9.3482210382165096
   0.0000000000000000    0.0000000000000000   62.9170570674836966
Ti O
90 180
direct
   0.3479379999999991    0.8204740000000001    0.4589510000000001 Ti
   0.3479379999999991    0.8204740000000001    0.1256176666666668 Ti
   0.3479379999999991    0.8204740000000001    0.2922843333333335 Ti
   0.1008690000000000    0.1441720000000008    0.4286166666666666 Ti
   0.1008690000000000    0.1441720000000008    0.0952833333333333 Ti
   0.1008690000000000    0.1441720000000008    0.2619499999999999 Ti
   0.8065249999999994    0.4774350000000001    0.3924335000000001 Ti
   0.8065249999999994    0.4774350000000001    0.0591001666666668 Ti
   0.8065249999999994    0.4774350000000001    0.2257668333333334 Ti
   0.7909490000000001    0.2465539999999999    0.0236253333333335 Ti
   0.7909490000000001    0.2465539999999999    0.1902920000000002 Ti
   0.7909490000000001    0.2465539999999999    0.3569586666666669 Ti
   0.4398120000000000    0.7044890000000010    0.4263231666666666 Ti
   0.4398120000000000    0.7044890000000010    0.0929898333333332 Ti
   0.4398120000000000    0.7044890000000010    0.2596564999999999 Ti
   0.1631409999999990    0.5778510000000001    0.4693296666666668 Ti
   0.1631409999999990    0.5778510000000001    0.1359963333333334 Ti
   0.1631409999999990    0.5778510000000001    0.3026630000000001 Ti
   0.5602509999999991    0.0046750000000008    0.4079678333333334 Ti
   0.5602509999999991    0.0046750000000008    0.0746345000000000 Ti
   0.5602509999999991    0.0046750000000008    0.2413011666666667 Ti
   0.5211030000000000    0.4422479999999999    0.4712911666666668 Ti
   0.5211030000000000    0.4422479999999999    0.1379578333333335 Ti
   0.5211030000000000    0.4422479999999999    0.3046245000000002 Ti
   0.5445340000000000    0.3619320000000000    0.4315856666666666 Ti
   0.5445340000000000    0.3619320000000000    0.0982523333333332 Ti
   0.5445340000000000    0.3619320000000000    0.2649189999999999 Ti
   0.3685410000000002    0.5153020000000010    0.0214721666666665 Ti
   0.3685410000000002    0.5153020000000010    0.1881388333333331 Ti
   0.3685410000000002    0.5153020000000010    0.3548054999999999 Ti
   0.0395639999999990    0.6267690000000000    0.3985310000000001 Ti
   0.0395639999999990    0.6267690000000000    0.0651976666666667 Ti
   0.0395639999999990    0.6267690000000000    0.2318643333333334 Ti
   0.4267149999999991    0.1029350000000001    0.4377446666666668 Ti
   0.4267149999999991    0.1029350000000001    0.1044113333333334 Ti
   0.4267149999999991    0.1029350000000001    0.2710780000000001 Ti
   0.4301250000000000    0.9143660000000000    0.0126405000000000 Ti
   0.4301250000000000    0.9143660000000000    0.1793071666666667 Ti
   0.4301250000000000    0.9143660000000000    0.3459738333333333 Ti
   0.8723019999999996    0.9280300000000002    0.4828318333333335 Ti
   0.8723019999999996    0.9280300000000002    0.1494985000000001 Ti
   0.8723019999999996    0.9280300000000002    0.3161651666666667 Ti
   0.1865880000000000    0.8336970000000010    0.3970789999999998 Ti
   0.1865880000000000    0.8336970000000010    0.0637456666666665 Ti
   0.1865880000000000    0.8336970000000010    0.2304123333333332 Ti
   0.6539610000000002    0.6951250000000000    0.3841318333333333 Ti
   0.6539610000000002    0.6951250000000000    0.0507985000000000 Ti
   0.6539610000000002    0.6951250000000000    0.2174651666666667 Ti
   0.3001759999999999    0.1249779999999997    0.3867713333333335 Ti
   0.3001759999999999    0.1249779999999997    0.0534380000000002 Ti
   0.3001759999999999    0.1249779999999997    0.2201046666666668 Ti
   0.2299519999999999    0.7013280000000000    0.0158555000000002 Ti
   0.2299519999999999    0.7013280000000000    0.1825221666666669 Ti
   0.2299519999999999    0.7013280000000000    0.3491888333333335 Ti
   0.2223479999999999    0.3955090000000000    0.4215190000000002 Ti
   0.2223479999999999    0.3955090000000000    0.0881856666666668 Ti
   0.2223479999999999    0.3955090000000000    0.2548523333333335 Ti
   0.5601389999999993    0.3160910000000000    0.3743485000000001 Ti
   0.5601389999999993    0.3160910000000000    0.0410151666666668 Ti
   0.5601389999999993    0.3160910000000000    0.2076818333333335 Ti
   0.0458439999999990    0.0765540000000000    0.3800135000000001 Ti
   0.0458439999999990    0.0765540000000000    0.0466801666666668 Ti
   0.0458439999999990    0.0765540000000000    0.2133468333333335 Ti
   0.7670669999999988    0.1698310000000008    0.4175795000000000 Ti
   0.7670669999999988    0.1698310000000008    0.0842461666666667 Ti
   0.7670669999999988    0.1698310000000008    0.2509128333333334 Ti
   0.0141669999999990    0.1413960000000010    0.4812791666666666 Ti
   0.0141669999999990    0.1413960000000010    0.1479458333333333 Ti
   0.0141669999999990    0.1413960000000010    0.3146125000000000 Ti
   0.9002000000000000    0.6815009999999999    0.4837448333333335 Ti
   0.9002000000000000    0.6815009999999999    0.1504115000000003 Ti
   0.9002000000000000    0.6815009999999999    0.3170781666666669 Ti
   0.9040300000000002    0.8948880000000002    0.3756288333333334 Ti
   0.9040300000000002    0.8948880000000002    0.0422955000000001 Ti
   0.9040300000000002    0.8948880000000002    0.2089621666666668 Ti
   0.2487680000000000    0.3399710000000001    0.4794900000000001 Ti
   0.2487680000000000    0.3399710000000001    0.1461566666666667 Ti
   0.2487680000000000    0.3399710000000001    0.3128233333333334 Ti
   0.6409000000000002    0.7353340000000003    0.4564336666666668 Ti
   0.6409000000000002    0.7353340000000003    0.1231003333333334 Ti
   0.6409000000000002    0.7353340000000003    0.2897670000000001 Ti
   0.6138279999999990    0.8367120000000000    0.4867446666666668 Ti
   0.6138279999999990    0.8367120000000000    0.1534113333333335 Ti
   0.6138279999999990    0.8367120000000000    0.3200780000000001 Ti
   0.5144870000000001    0.1248010000000002    0.0057883333333335 Ti
   0.5144870000000001    0.1248010000000002    0.1724550000000001 Ti
   0.5144870000000001    0.1248010000000002    0.3391216666666668 Ti
   0.7612200000000001    0.3121970000000009    0.4712008333333332 Ti
   0.7612200000000001    0.3121970000000009    0.1378674999999999 Ti
   0.7612200000000001    0.3121970000000009    0.3045341666666666 Ti
   0.8739560000000002    0.9910120000000001    0.0038800000000002 O
   0.8739560000000002    0.9910120000000001    0.1705466666666668 O
   0.8739560000000002    0.9910120000000001    0.3372133333333334 O
   0.8036150000000000    0.7133380000000001    0.4554713333333333 O
   0.8036150000000000    0.7133380000000001    0.1221380000000000 O
   0.8036150000000000    0.7133380000000001    0.2888046666666664 O
   0.9485159999999990    0.2054380000000000    0.0305156666666668 O
   0.9485159999999990    0.2054380000000000    0.1971823333333333 O
   0.9485159999999990    0.2054380000000000    0.3638490000000002 O
   0.2662120000000000    0.5014220000000009    0.0014150000000000 O
   0.2662120000000000    0.5014220000000009    0.1680816666666667 O
   0.2662120000000000    0.5014220000000009    0.3347483333333333 O
   0.8931300000000003    0.5236930000000000    0.4104611666666668 O
   0.8931300000000003    0.5236930000000000    0.0771278333333334 O
   0.8931300000000003    0.5236930000000000    0.2437945000000001 O
   0.3974479999999990    0.6925810000000001    0.4979018333333334 O
   0.3974479999999990    0.6925810000000001    0.1645685000000002 O
   0.3974479999999990    0.6925810000000001    0.3312351666666668 O
   0.2208709999999990    0.2082220000000000    0.0192601666666669 O
   0.2208709999999990    0.2082220000000000    0.1859268333333335 O
   0.2208709999999990    0.2082220000000000    0.3525935000000002 O
   0.5392760000000002    0.7732650000000000    0.0221881666666667 O
   0.5392760000000002    0.7732650000000000    0.1888548333333333 O
   0.5392760000000002    0.7732650000000000    0.3555215000000000 O
   0.5830440000000002    0.3545419999999999    0.0075751666666668 O
   0.5830440000000002    0.3545419999999999    0.1742418333333335 O
   0.5830440000000002    0.3545419999999999    0.3409085000000000 O
   0.1244670000000000    0.4280370000000000    0.4775000000000000 O
   0.1244670000000000    0.4280370000000000    0.1441666666666666 O
   0.1244670000000000    0.4280370000000000    0.3108333333333332 O
   0.0680549999999990    0.6614070000000000    0.3658490000000001 O
   0.0680549999999990    0.6614070000000000    0.0325156666666667 O
   0.0680549999999990    0.6614070000000000    0.1991823333333334 O
   0.2100409999999990    0.8127910000000002    0.4768836666666668 O
   0.2100409999999990    0.8127910000000002    0.1435503333333334 O
   0.2100409999999990    0.8127910000000002    0.3102170000000001 O
   0.6015980000000001    0.2259720000000008    0.4671113333333333 O
   0.6015980000000001    0.2259720000000008    0.1337780000000000 O
   0.6015980000000001    0.2259720000000008    0.3004446666666666 O
   0.9369569999999992    0.8329630000000001    0.4755040000000000 O
   0.9369569999999992    0.8329630000000001    0.1421706666666666 O
   0.9369569999999992    0.8329630000000001    0.3088373333333332 O
   0.7478680000000001    0.3017190000000008    0.3765735000000000 O
   0.7478680000000001    0.3017190000000008    0.0432401666666667 O
   0.7478680000000001    0.3017190000000008    0.2099068333333334 O
   0.1286800000000000    0.6762770000000001    0.4294340000000001 O
   0.1286800000000000    0.6762770000000001    0.0961006666666668 O
   0.1286800000000000    0.6762770000000001    0.2627673333333335 O
   0.3732089999999991    0.0628869999999998    0.4985850000000001 O
   0.3732089999999991    0.0628869999999998    0.1652516666666667 O
   0.3732089999999991    0.0628869999999998    0.3319183333333334 O
   0.9236479999999990    0.9405430000000010    0.3973060000000000 O
   0.9236479999999990    0.9405430000000010    0.0639726666666667 O
   0.9236479999999990    0.9405430000000010    0.2306393333333334 O
   0.9223730000000000    0.1389929999999998    0.4197501666666669 O
   0.9223730000000000    0.1389929999999998    0.0864168333333335 O
   0.9223730000000000    0.1389929999999998    0.2530835000000002 O
   0.9020089999999999    0.2535110000000002    0.4669823333333333 O
   0.9020089999999999    0.2535110000000002    0.1336489999999999 O
   0.9020089999999999    0.2535110000000002    0.3003156666666665 O
   0.5288700000000001    0.4666590000000002    0.0296838333333333 O
   0.5288700000000001    0.4666590000000002    0.1963505000000000 O
   0.5288700000000001    0.4666590000000002    0.3630171666666666 O
   0.0372740000000000    0.6255510000000000    0.4790901666666669 O
   0.0372740000000000    0.6255510000000000    0.1457568333333336 O
   0.0372740000000000    0.6255510000000000    0.3124235000000001 O
   0.7350010000000000    0.9933010000000002    0.4605081666666668 O
   0.7350010000000000    0.9933010000000002    0.1271748333333335 O
   0.7350010000000000    0.9933010000000002    0.2938415000000000 O
   0.7777479999999998    0.7652890000000001    0.3924063333333333 O
   0.7777479999999998    0.7652890000000001    0.0590730000000000 O
   0.7777479999999998    0.7652890000000001    0.2257396666666666 O
   0.1128660000000000    0.3028190000000008    0.4161711666666667 O
   0.1128660000000000    0.3028190000000008    0.0828378333333334 O
   0.1128660000000000    0.3028190000000008    0.2495045000000001 O
   0.5646110000000001    0.9682820000000010    0.0222893333333333 O
   0.5646110000000001    0.9682820000000010    0.1889559999999999 O
   0.5646110000000001    0.9682820000000010    0.3556226666666665 O
   0.8562139999999991    0.5527519999999999    0.0233148333333335 O
   0.8562139999999991    0.5527519999999999    0.1899815000000001 O
   0.8562139999999991    0.5527519999999999    0.3566481666666669 O
   0.2876890000000000    0.7950530000000001    0.0235105000000000 O
   0.2876890000000000    0.7950530000000001    0.1901771666666667 O
   0.2876890000000000    0.7950530000000001    0.3568438333333334 O
   0.3119490000000000    0.7310080000000001    0.4480683333333335 O
   0.3119490000000000    0.7310080000000001    0.1147350000000002 O
   0.3119490000000000    0.7310080000000001    0.2814016666666668 O
   0.6368840000000000    0.4425230000000001    0.4498700000000002 O
   0.6368840000000000    0.4425230000000001    0.1165366666666668 O
   0.6368840000000000    0.4425230000000001    0.2832033333333335 O
   0.4617560000000002    0.0854470000000001    0.3759201666666668 O
   0.4617560000000002    0.0854470000000001    0.0425868333333335 O
   0.4617560000000002    0.0854470000000001    0.2092535000000001 O
   0.0542060000000000    0.0632090000000008    0.0176790000000000 O
   0.0542060000000000    0.0632090000000008    0.1843456666666667 O
   0.0542060000000000    0.0632090000000008    0.3510123333333334 O
   0.3509839999999990    0.8173380000000001    0.3931255000000000 O
   0.3509839999999990    0.8173380000000001    0.0597921666666667 O
   0.3509839999999990    0.8173380000000001    0.2264588333333333 O
   0.4720379999999992    0.9702880000000003    0.4745348333333334 O
   0.4720379999999992    0.9702880000000003    0.1412015000000000 O
   0.4720379999999992    0.9702880000000003    0.3078681666666666 O
   0.7638309999999990    0.7918760000000000    0.0131976666666668 O
   0.7638309999999990    0.7918760000000000    0.1798643333333335 O
   0.7638309999999990    0.7918760000000000    0.3465310000000001 O
   0.5759319999999999    0.1332180000000011    0.4136029999999999 O
   0.5759319999999999    0.1332180000000011    0.0802696666666666 O
   0.5759319999999999    0.1332180000000011    0.2469363333333332 O
   0.4226640000000000    0.2914620000000000    0.4859261666666667 O
   0.4226640000000000    0.2914620000000000    0.1525928333333333 O
   0.4226640000000000    0.2914620000000000    0.3192595000000000 O
   0.1914030000000000    0.9599750000000002    0.3976088333333334 O
   0.1914030000000000    0.9599750000000002    0.0642755000000001 O
   0.1914030000000000    0.9599750000000002    0.2309421666666668 O
   0.1594519999999990    0.5195680000000009    0.4178949999999998 O
   0.1594519999999990    0.5195680000000009    0.0845616666666665 O
   0.1594519999999990    0.5195680000000009    0.2512283333333332 O
   0.1384619999999999    0.1140920000000008    0.4030124999999999 O
   0.1384619999999999    0.1140920000000008    0.0696791666666666 O
   0.1384619999999999    0.1140920000000008    0.2363458333333332 O
   0.3836949999999998    0.2549929999999998    0.3829243333333333 O
   0.3836949999999998    0.2549929999999998    0.0495910000000000 O
   0.3836949999999998    0.2549929999999998    0.2162576666666667 O
   0.2678300000000000    0.5161840000000010    0.3788525000000000 O
   0.2678300000000000    0.5161840000000010    0.0455191666666666 O
   0.2678300000000000    0.5161840000000010    0.2121858333333333 O
   0.7179100000000000    0.0698520000000002    0.3949120000000002 O
   0.7179100000000000    0.0698520000000002    0.0615786666666668 O
   0.7179100000000000    0.0698520000000002    0.2282453333333335 O
   0.3878410000000001    0.4028710000000002    0.4291603333333335 O
   0.3878410000000001    0.4028710000000002    0.0958270000000001 O
   0.3878410000000001    0.4028710000000002    0.2624936666666668 O
   0.3703140000000000    0.9993610000000012    0.4257114999999998 O
   0.3703140000000000    0.9993610000000012    0.0923781666666665 O
   0.3703140000000000    0.9993610000000012    0.2590448333333333 O
   0.1724170000000000    0.2708770000000001    0.4643286666666667 O
   0.1724170000000000    0.2708770000000001    0.1309953333333333 O
   0.1724170000000000    0.2708770000000001    0.2976620000000000 O
   0.0296230000000000    0.0548199999999999    0.4669585000000002 O
   0.0296230000000000    0.0548199999999999    0.1336251666666667 O
   0.0296230000000000    0.0548199999999999    0.3002918333333334 O
   0.0428710000000000    0.8070050000000001    0.3808640000000002 O
   0.0428710000000000    0.8070050000000001    0.0475306666666668 O
   0.0428710000000000    0.8070050000000001    0.2141973333333335 O
   0.7001120000000000    0.1780890000000001    0.0086205000000000 O
   0.7001120000000000    0.1780890000000001    0.1752871666666666 O
   0.7001120000000000    0.1780890000000001    0.3419538333333333 O
   0.5427529999999994    0.6028380000000010    0.4642756666666666 O
   0.5427529999999994    0.6028380000000010    0.1309423333333333 O
   0.5427529999999994    0.6028380000000010    0.2976090000000000 O
   0.6677839999999992    0.7085150000000000    0.4899786666666668 O
   0.6677839999999992    0.7085150000000000    0.1566453333333335 O
   0.6677839999999992    0.7085150000000000    0.3233120000000001 O
   0.5019669999999992    0.2638999999999998    0.4230555000000002 O
   0.5019669999999992    0.2638999999999998    0.0897221666666669 O
   0.5019669999999992    0.2638999999999998    0.2563888333333335 O
   0.5481920000000000    0.8703910000000000    0.4519378333333335 O
   0.5481920000000000    0.8703910000000000    0.1186045000000001 O
   0.5481920000000000    0.8703910000000000    0.2852711666666669 O
   0.5340460000000001    0.6660159999999999    0.4093700000000000 O
   0.5340460000000001    0.6660159999999999    0.0760366666666667 O
   0.5340460000000001    0.6660159999999999    0.2427033333333334 O
   0.3606370000000000    0.5156370000000000    0.4553388333333335 O
   0.3606370000000000    0.5156370000000000    0.1220055000000002 O
   0.3606370000000000    0.5156370000000000    0.2886721666666668 O
   0.7773439999999990    0.3032550000000002    0.4178881666666667 O
   0.7773439999999990    0.3032550000000002    0.0845548333333334 O
   0.7773439999999990    0.3032550000000002    0.2512215000000002 O
   0.2641879999999999    0.1172580000000010    0.4407960000000000 O
   0.2641879999999999    0.1172580000000010    0.1074626666666667 O
   0.2641879999999999    0.1172580000000010    0.2741293333333332 O
   0.8271069999999990    0.3857580000000001    0.4843556666666668 O
   0.8271069999999990    0.3857580000000001    0.1510223333333334 O
   0.8271069999999990    0.3857580000000001    0.3176890000000002 O
   0.6517999999999999    0.5210360000000001    0.3973140000000001 O
   0.6517999999999999    0.5210360000000001    0.0639806666666667 O
   0.6517999999999999    0.5210360000000001    0.2306473333333335 O
   0.5605660000000001    0.8361070000000010    0.4188649999999998 O
   0.5605660000000001    0.8361070000000010    0.0855316666666665 O
   0.5605660000000001    0.8361070000000010    0.2521983333333332 O
