Ti90 O180
1.0
  10.7847349425586163    0.0000000000000000    0.0060328200944446
  -1.2247047225377732   10.4583487854001529    9.3482210382165096
   0.0000000000000000    0.0000000000000000   62.9170570674836966
Ti O
90 180
direct
   0.3479379999999991    0.8204740000000001    0.0427170000000002 Ti
   0.3479379999999991    0.8204740000000001    0.2093836666666670 Ti
   0.3479379999999991    0.8204740000000001    0.3760503333333336 Ti
   0.1008690000000000    0.1441720000000008    0.0123826666666668 Ti
   0.1008690000000000    0.1441720000000008    0.1790493333333334 Ti
   0.1008690000000000    0.1441720000000008    0.3457160000000000 Ti
   0.8065249999999994    0.4774350000000001    0.4761995000000002 Ti
   0.8065249999999994    0.4774350000000001    0.1428661666666669 Ti
   0.8065249999999994    0.4774350000000001    0.3095328333333335 Ti
   0.7909490000000001    0.2465539999999999    0.1073913333333336 Ti
   0.7909490000000001    0.2465539999999999    0.2740580000000004 Ti
   0.7909490000000001    0.2465539999999999    0.4407246666666670 Ti
   0.4398120000000000    0.7044890000000010    0.0100891666666668 Ti
   0.4398120000000000    0.7044890000000010    0.1767558333333333 Ti
   0.4398120000000000    0.7044890000000010    0.3434225000000000 Ti
   0.1631409999999990    0.5778510000000001    0.0530956666666669 Ti
   0.1631409999999990    0.5778510000000001    0.2197623333333336 Ti
   0.1631409999999990    0.5778510000000001    0.3864290000000002 Ti
   0.5602509999999991    0.0046750000000008    0.4917338333333335 Ti
   0.5602509999999991    0.0046750000000008    0.1584005000000001 Ti
   0.5602509999999991    0.0046750000000008    0.3250671666666669 Ti
   0.5211030000000000    0.4422479999999999    0.0550571666666669 Ti
   0.5211030000000000    0.4422479999999999    0.2217238333333336 Ti
   0.5211030000000000    0.4422479999999999    0.3883905000000003 Ti
   0.5445340000000000    0.3619320000000000    0.0153516666666668 Ti
   0.5445340000000000    0.3619320000000000    0.1820183333333333 Ti
   0.5445340000000000    0.3619320000000000    0.3486850000000000 Ti
   0.3685410000000002    0.5153020000000010    0.1052381666666666 Ti
   0.3685410000000002    0.5153020000000010    0.2719048333333332 Ti
   0.3685410000000002    0.5153020000000010    0.4385715000000000 Ti
   0.0395639999999990    0.6267690000000000    0.4822970000000002 Ti
   0.0395639999999990    0.6267690000000000    0.1489636666666668 Ti
   0.0395639999999990    0.6267690000000000    0.3156303333333335 Ti
   0.4267149999999991    0.1029350000000001    0.0215106666666669 Ti
   0.4267149999999991    0.1029350000000001    0.1881773333333335 Ti
   0.4267149999999991    0.1029350000000001    0.3548440000000002 Ti
   0.4301250000000000    0.9143660000000000    0.0964065000000001 Ti
   0.4301250000000000    0.9143660000000000    0.2630731666666668 Ti
   0.4301250000000000    0.9143660000000000    0.4297398333333334 Ti
   0.8723019999999996    0.9280300000000002    0.0665978333333336 Ti
   0.8723019999999996    0.9280300000000002    0.2332645000000002 Ti
   0.8723019999999996    0.9280300000000002    0.3999311666666668 Ti
   0.1865880000000000    0.8336970000000010    0.4808449999999999 Ti
   0.1865880000000000    0.8336970000000010    0.1475116666666666 Ti
   0.1865880000000000    0.8336970000000010    0.3141783333333333 Ti
   0.6539610000000002    0.6951250000000000    0.4678978333333334 Ti
   0.6539610000000002    0.6951250000000000    0.1345645000000001 Ti
   0.6539610000000002    0.6951250000000000    0.3012311666666668 Ti
   0.3001759999999999    0.1249779999999997    0.4705373333333336 Ti
   0.3001759999999999    0.1249779999999997    0.1372040000000003 Ti
   0.3001759999999999    0.1249779999999997    0.3038706666666670 Ti
   0.2299519999999999    0.7013280000000000    0.0996215000000003 Ti
   0.2299519999999999    0.7013280000000000    0.2662881666666670 Ti
   0.2299519999999999    0.7013280000000000    0.4329548333333336 Ti
   0.2223479999999999    0.3955090000000000    0.0052850000000003 Ti
   0.2223479999999999    0.3955090000000000    0.1719516666666669 Ti
   0.2223479999999999    0.3955090000000000    0.3386183333333336 Ti
   0.5601389999999993    0.3160910000000000    0.4581145000000003 Ti
   0.5601389999999993    0.3160910000000000    0.1247811666666669 Ti
   0.5601389999999993    0.3160910000000000    0.2914478333333336 Ti
   0.0458439999999990    0.0765540000000000    0.4637795000000002 Ti
   0.0458439999999990    0.0765540000000000    0.1304461666666669 Ti
   0.0458439999999990    0.0765540000000000    0.2971128333333336 Ti
   0.7670669999999988    0.1698310000000008    0.0013455000000001 Ti
   0.7670669999999988    0.1698310000000008    0.1680121666666668 Ti
   0.7670669999999988    0.1698310000000008    0.3346788333333335 Ti
   0.0141669999999990    0.1413960000000010    0.0650451666666668 Ti
   0.0141669999999990    0.1413960000000010    0.2317118333333335 Ti
   0.0141669999999990    0.1413960000000010    0.3983785000000001 Ti
   0.9002000000000000    0.6815009999999999    0.0675108333333336 Ti
   0.9002000000000000    0.6815009999999999    0.2341775000000004 Ti
   0.9002000000000000    0.6815009999999999    0.4008441666666670 Ti
   0.9040300000000002    0.8948880000000002    0.4593948333333335 Ti
   0.9040300000000002    0.8948880000000002    0.1260615000000002 Ti
   0.9040300000000002    0.8948880000000002    0.2927281666666669 Ti
   0.2487680000000000    0.3399710000000001    0.0632560000000003 Ti
   0.2487680000000000    0.3399710000000001    0.2299226666666668 Ti
   0.2487680000000000    0.3399710000000001    0.3965893333333335 Ti
   0.6409000000000002    0.7353340000000003    0.0401996666666669 Ti
   0.6409000000000002    0.7353340000000003    0.2068663333333335 Ti
   0.6409000000000002    0.7353340000000003    0.3735330000000002 Ti
   0.6138279999999990    0.8367120000000000    0.0705106666666669 Ti
   0.6138279999999990    0.8367120000000000    0.2371773333333336 Ti
   0.6138279999999990    0.8367120000000000    0.4038440000000003 Ti
   0.5144870000000001    0.1248010000000002    0.0895543333333336 Ti
   0.5144870000000001    0.1248010000000002    0.2562210000000002 Ti
   0.5144870000000001    0.1248010000000002    0.4228876666666669 Ti
   0.7612200000000001    0.3121970000000009    0.0549668333333333 Ti
   0.7612200000000001    0.3121970000000009    0.2216335000000000 Ti
   0.7612200000000001    0.3121970000000009    0.3883001666666667 Ti
   0.8739560000000002    0.9910120000000001    0.0876460000000003 O
   0.8739560000000002    0.9910120000000001    0.2543126666666669 O
   0.8739560000000002    0.9910120000000001    0.4209793333333335 O
   0.8036150000000000    0.7133380000000001    0.0392373333333334 O
   0.8036150000000000    0.7133380000000001    0.2059040000000001 O
   0.8036150000000000    0.7133380000000001    0.3725706666666666 O
   0.9485159999999990    0.2054380000000000    0.1142816666666669 O
   0.9485159999999990    0.2054380000000000    0.2809483333333335 O
   0.9485159999999990    0.2054380000000000    0.4476150000000003 O
   0.2662120000000000    0.5014220000000009    0.0851810000000001 O
   0.2662120000000000    0.5014220000000009    0.2518476666666668 O
   0.2662120000000000    0.5014220000000009    0.4185143333333334 O
   0.8931300000000003    0.5236930000000000    0.4942271666666669 O
   0.8931300000000003    0.5236930000000000    0.1608938333333335 O
   0.8931300000000003    0.5236930000000000    0.3275605000000003 O
   0.3974479999999990    0.6925810000000001    0.0816678333333336 O
   0.3974479999999990    0.6925810000000001    0.2483345000000003 O
   0.3974479999999990    0.6925810000000001    0.4150011666666669 O
   0.2208709999999990    0.2082220000000000    0.1030261666666670 O
   0.2208709999999990    0.2082220000000000    0.2696928333333336 O
   0.2208709999999990    0.2082220000000000    0.4363595000000003 O
   0.5392760000000002    0.7732650000000000    0.1059541666666668 O
   0.5392760000000002    0.7732650000000000    0.2726208333333334 O
   0.5392760000000002    0.7732650000000000    0.4392875000000002 O
   0.5830440000000002    0.3545419999999999    0.0913411666666669 O
   0.5830440000000002    0.3545419999999999    0.2580078333333336 O
   0.5830440000000002    0.3545419999999999    0.4246745000000001 O
   0.1244670000000000    0.4280370000000000    0.0612660000000001 O
   0.1244670000000000    0.4280370000000000    0.2279326666666667 O
   0.1244670000000000    0.4280370000000000    0.3945993333333333 O
   0.0680549999999990    0.6614070000000000    0.4496150000000003 O
   0.0680549999999990    0.6614070000000000    0.1162816666666668 O
   0.0680549999999990    0.6614070000000000    0.2829483333333335 O
   0.2100409999999990    0.8127910000000002    0.0606496666666669 O
   0.2100409999999990    0.8127910000000002    0.2273163333333336 O
   0.2100409999999990    0.8127910000000002    0.3939830000000002 O
   0.6015980000000001    0.2259720000000008    0.0508773333333335 O
   0.6015980000000001    0.2259720000000008    0.2175440000000001 O
   0.6015980000000001    0.2259720000000008    0.3842106666666668 O
   0.9369569999999992    0.8329630000000001    0.0592700000000001 O
   0.9369569999999992    0.8329630000000001    0.2259366666666667 O
   0.9369569999999992    0.8329630000000001    0.3926033333333334 O
   0.7478680000000001    0.3017190000000008    0.4603395000000001 O
   0.7478680000000001    0.3017190000000008    0.1270061666666668 O
   0.7478680000000001    0.3017190000000008    0.2936728333333335 O
   0.1286800000000000    0.6762770000000001    0.0132000000000002 O
   0.1286800000000000    0.6762770000000001    0.1798666666666670 O
   0.1286800000000000    0.6762770000000001    0.3465333333333336 O
   0.3732089999999991    0.0628869999999998    0.0823510000000001 O
   0.3732089999999991    0.0628869999999998    0.2490176666666668 O
   0.3732089999999991    0.0628869999999998    0.4156843333333335 O
   0.9236479999999990    0.9405430000000010    0.4810720000000002 O
   0.9236479999999990    0.9405430000000010    0.1477386666666669 O
   0.9236479999999990    0.9405430000000010    0.3144053333333335 O
   0.9223730000000000    0.1389929999999998    0.0035161666666670 O
   0.9223730000000000    0.1389929999999998    0.1701828333333336 O
   0.9223730000000000    0.1389929999999998    0.3368495000000003 O
   0.9020089999999999    0.2535110000000002    0.0507483333333335 O
   0.9020089999999999    0.2535110000000002    0.2174150000000000 O
   0.9020089999999999    0.2535110000000002    0.3840816666666667 O
   0.5288700000000001    0.4666590000000002    0.1134498333333334 O
   0.5288700000000001    0.4666590000000002    0.2801165000000001 O
   0.5288700000000001    0.4666590000000002    0.4467831666666667 O
   0.0372740000000000    0.6255510000000000    0.0628561666666670 O
   0.0372740000000000    0.6255510000000000    0.2295228333333337 O
   0.0372740000000000    0.6255510000000000    0.3961895000000002 O
   0.7350010000000000    0.9933010000000002    0.0442741666666669 O
   0.7350010000000000    0.9933010000000002    0.2109408333333336 O
   0.7350010000000000    0.9933010000000002    0.3776075000000001 O
   0.7777479999999998    0.7652890000000001    0.4761723333333334 O
   0.7777479999999998    0.7652890000000001    0.1428390000000001 O
   0.7777479999999998    0.7652890000000001    0.3095056666666667 O
   0.1128660000000000    0.3028190000000008    0.4999371666666668 O
   0.1128660000000000    0.3028190000000008    0.1666038333333335 O
   0.1128660000000000    0.3028190000000008    0.3332705000000002 O
   0.5646110000000001    0.9682820000000010    0.1060553333333334 O
   0.5646110000000001    0.9682820000000010    0.2727220000000000 O
   0.5646110000000001    0.9682820000000010    0.4393886666666666 O
   0.8562139999999991    0.5527519999999999    0.1070808333333336 O
   0.8562139999999991    0.5527519999999999    0.2737475000000002 O
   0.8562139999999991    0.5527519999999999    0.4404141666666670 O
   0.2876890000000000    0.7950530000000001    0.1072765000000001 O
   0.2876890000000000    0.7950530000000001    0.2739431666666668 O
   0.2876890000000000    0.7950530000000001    0.4406098333333335 O
   0.3119490000000000    0.7310080000000001    0.0318343333333336 O
   0.3119490000000000    0.7310080000000001    0.1985010000000003 O
   0.3119490000000000    0.7310080000000001    0.3651676666666669 O
   0.6368840000000000    0.4425230000000001    0.0336360000000003 O
   0.6368840000000000    0.4425230000000001    0.2003026666666670 O
   0.6368840000000000    0.4425230000000001    0.3669693333333336 O
   0.4617560000000002    0.0854470000000001    0.4596861666666670 O
   0.4617560000000002    0.0854470000000001    0.1263528333333336 O
   0.4617560000000002    0.0854470000000001    0.2930195000000003 O
   0.0542060000000000    0.0632090000000008    0.1014450000000001 O
   0.0542060000000000    0.0632090000000008    0.2681116666666669 O
   0.0542060000000000    0.0632090000000008    0.4347783333333335 O
   0.3509839999999990    0.8173380000000001    0.4768915000000001 O
   0.3509839999999990    0.8173380000000001    0.1435581666666668 O
   0.3509839999999990    0.8173380000000001    0.3102248333333334 O
   0.4720379999999992    0.9702880000000003    0.0583008333333334 O
   0.4720379999999992    0.9702880000000003    0.2249675000000001 O
   0.4720379999999992    0.9702880000000003    0.3916341666666667 O
   0.7638309999999990    0.7918760000000000    0.0969636666666669 O
   0.7638309999999990    0.7918760000000000    0.2636303333333336 O
   0.7638309999999990    0.7918760000000000    0.4302970000000003 O
   0.5759319999999999    0.1332180000000011    0.4973690000000001 O
   0.5759319999999999    0.1332180000000011    0.1640356666666667 O
   0.5759319999999999    0.1332180000000011    0.3307023333333333 O
   0.4226640000000000    0.2914620000000000    0.0696921666666668 O
   0.4226640000000000    0.2914620000000000    0.2363588333333335 O
   0.4226640000000000    0.2914620000000000    0.4030255000000001 O
   0.1914030000000000    0.9599750000000002    0.4813748333333335 O
   0.1914030000000000    0.9599750000000002    0.1480415000000002 O
   0.1914030000000000    0.9599750000000002    0.3147081666666669 O
   0.1594519999999990    0.5195680000000009    0.0016609999999999 O
   0.1594519999999990    0.5195680000000009    0.1683276666666667 O
   0.1594519999999990    0.5195680000000009    0.3349943333333333 O
   0.1384619999999999    0.1140920000000008    0.4867785000000000 O
   0.1384619999999999    0.1140920000000008    0.1534451666666667 O
   0.1384619999999999    0.1140920000000008    0.3201118333333333 O
   0.3836949999999998    0.2549929999999998    0.4666903333333334 O
   0.3836949999999998    0.2549929999999998    0.1333570000000001 O
   0.3836949999999998    0.2549929999999998    0.3000236666666668 O
   0.2678300000000000    0.5161840000000010    0.4626185000000001 O
   0.2678300000000000    0.5161840000000010    0.1292851666666667 O
   0.2678300000000000    0.5161840000000010    0.2959518333333334 O
   0.7179100000000000    0.0698520000000002    0.4786780000000003 O
   0.7179100000000000    0.0698520000000002    0.1453446666666669 O
   0.7179100000000000    0.0698520000000002    0.3120113333333336 O
   0.3878410000000001    0.4028710000000002    0.0129263333333336 O
   0.3878410000000001    0.4028710000000002    0.1795930000000003 O
   0.3878410000000001    0.4028710000000002    0.3462596666666670 O
   0.3703140000000000    0.9993610000000012    0.0094774999999999 O
   0.3703140000000000    0.9993610000000012    0.1761441666666666 O
   0.3703140000000000    0.9993610000000012    0.3428108333333334 O
   0.1724170000000000    0.2708770000000001    0.0480946666666668 O
   0.1724170000000000    0.2708770000000001    0.2147613333333334 O
   0.1724170000000000    0.2708770000000001    0.3814280000000001 O
   0.0296230000000000    0.0548199999999999    0.0507245000000003 O
   0.0296230000000000    0.0548199999999999    0.2173911666666669 O
   0.0296230000000000    0.0548199999999999    0.3840578333333335 O
   0.0428710000000000    0.8070050000000001    0.4646300000000003 O
   0.0428710000000000    0.8070050000000001    0.1312966666666669 O
   0.0428710000000000    0.8070050000000001    0.2979633333333336 O
   0.7001120000000000    0.1780890000000001    0.0923865000000001 O
   0.7001120000000000    0.1780890000000001    0.2590531666666667 O
   0.7001120000000000    0.1780890000000001    0.4257198333333335 O
   0.5427529999999994    0.6028380000000010    0.0480416666666667 O
   0.5427529999999994    0.6028380000000010    0.2147083333333334 O
   0.5427529999999994    0.6028380000000010    0.3813750000000001 O
   0.6677839999999992    0.7085150000000000    0.0737446666666669 O
   0.6677839999999992    0.7085150000000000    0.2404113333333336 O
   0.6677839999999992    0.7085150000000000    0.4070780000000002 O
   0.5019669999999992    0.2638999999999998    0.0068215000000003 O
   0.5019669999999992    0.2638999999999998    0.1734881666666670 O
   0.5019669999999992    0.2638999999999998    0.3401548333333336 O
   0.5481920000000000    0.8703910000000000    0.0357038333333336 O
   0.5481920000000000    0.8703910000000000    0.2023705000000002 O
   0.5481920000000000    0.8703910000000000    0.3690371666666670 O
   0.5340460000000001    0.6660159999999999    0.4931360000000001 O
   0.5340460000000001    0.6660159999999999    0.1598026666666668 O
   0.5340460000000001    0.6660159999999999    0.3264693333333335 O
   0.3606370000000000    0.5156370000000000    0.0391048333333336 O
   0.3606370000000000    0.5156370000000000    0.2057715000000003 O
   0.3606370000000000    0.5156370000000000    0.3724381666666669 O
   0.7773439999999990    0.3032550000000002    0.0016541666666669 O
   0.7773439999999990    0.3032550000000002    0.1683208333333336 O
   0.7773439999999990    0.3032550000000002    0.3349875000000003 O
   0.2641879999999999    0.1172580000000010    0.0245620000000001 O
   0.2641879999999999    0.1172580000000010    0.1912286666666668 O
   0.2641879999999999    0.1172580000000010    0.3578953333333333 O
   0.8271069999999990    0.3857580000000001    0.0681216666666669 O
   0.8271069999999990    0.3857580000000001    0.2347883333333335 O
   0.8271069999999990    0.3857580000000001    0.4014550000000003 O
   0.6517999999999999    0.5210360000000001    0.4810800000000002 O
   0.6517999999999999    0.5210360000000001    0.1477466666666669 O
   0.6517999999999999    0.5210360000000001    0.3144133333333337 O
   0.5605660000000001    0.8361070000000010    0.0026309999999999 O
   0.5605660000000001    0.8361070000000010    0.1692976666666666 O
   0.5605660000000001    0.8361070000000010    0.3359643333333333 O
