Ti90 O180
1.0
  10.7847349425586163    0.0000000000000000    0.0060328200944446
  -1.2247047225377732   10.4583487854001529    9.3482210382165096
   0.0000000000000000    0.0000000000000000   62.9170570674836966
Ti O
90 180
direct
   0.3479379999999991    0.8204740000000001    0.4323538333333334 Ti
   0.3479379999999991    0.8204740000000001    0.0990205000000002 Ti
   0.3479379999999991    0.8204740000000001    0.2656871666666668 Ti
   0.1008690000000000    0.1441720000000008    0.4020195000000000 Ti
   0.1008690000000000    0.1441720000000008    0.0686861666666666 Ti
   0.1008690000000000    0.1441720000000008    0.2353528333333332 Ti
   0.8065249999999994    0.4774350000000001    0.3658363333333334 Ti
   0.8065249999999994    0.4774350000000001    0.0325030000000001 Ti
   0.8065249999999994    0.4774350000000001    0.1991696666666667 Ti
   0.7909490000000001    0.2465539999999999    0.4970281666666668 Ti
   0.7909490000000001    0.2465539999999999    0.1636948333333336 Ti
   0.7909490000000001    0.2465539999999999    0.3303615000000002 Ti
   0.4398120000000000    0.7044890000000010    0.3997260000000000 Ti
   0.4398120000000000    0.7044890000000010    0.0663926666666665 Ti
   0.4398120000000000    0.7044890000000010    0.2330593333333332 Ti
   0.1631409999999990    0.5778510000000001    0.4427325000000001 Ti
   0.1631409999999990    0.5778510000000001    0.1093991666666668 Ti
   0.1631409999999990    0.5778510000000001    0.2760658333333334 Ti
   0.5602509999999991    0.0046750000000008    0.3813706666666667 Ti
   0.5602509999999991    0.0046750000000008    0.0480373333333333 Ti
   0.5602509999999991    0.0046750000000008    0.2147040000000001 Ti
   0.5211030000000000    0.4422479999999999    0.4446940000000001 Ti
   0.5211030000000000    0.4422479999999999    0.1113606666666668 Ti
   0.5211030000000000    0.4422479999999999    0.2780273333333335 Ti
   0.5445340000000000    0.3619320000000000    0.4049885000000000 Ti
   0.5445340000000000    0.3619320000000000    0.0716551666666665 Ti
   0.5445340000000000    0.3619320000000000    0.2383218333333332 Ti
   0.3685410000000002    0.5153020000000010    0.4948749999999998 Ti
   0.3685410000000002    0.5153020000000010    0.1615416666666664 Ti
   0.3685410000000002    0.5153020000000010    0.3282083333333332 Ti
   0.0395639999999990    0.6267690000000000    0.3719338333333334 Ti
   0.0395639999999990    0.6267690000000000    0.0386005000000000 Ti
   0.0395639999999990    0.6267690000000000    0.2052671666666667 Ti
   0.4267149999999991    0.1029350000000001    0.4111475000000001 Ti
   0.4267149999999991    0.1029350000000001    0.0778141666666667 Ti
   0.4267149999999991    0.1029350000000001    0.2444808333333334 Ti
   0.4301250000000000    0.9143660000000000    0.4860433333333334 Ti
   0.4301250000000000    0.9143660000000000    0.1527100000000000 Ti
   0.4301250000000000    0.9143660000000000    0.3193766666666666 Ti
   0.8723019999999996    0.9280300000000002    0.4562346666666668 Ti
   0.8723019999999996    0.9280300000000002    0.1229013333333334 Ti
   0.8723019999999996    0.9280300000000002    0.2895680000000000 Ti
   0.1865880000000000    0.8336970000000010    0.3704818333333331 Ti
   0.1865880000000000    0.8336970000000010    0.0371484999999998 Ti
   0.1865880000000000    0.8336970000000010    0.2038151666666665 Ti
   0.6539610000000002    0.6951250000000000    0.3575346666666666 Ti
   0.6539610000000002    0.6951250000000000    0.0242013333333334 Ti
   0.6539610000000002    0.6951250000000000    0.1908680000000000 Ti
   0.3001759999999999    0.1249779999999997    0.3601741666666669 Ti
   0.3001759999999999    0.1249779999999997    0.0268408333333335 Ti
   0.3001759999999999    0.1249779999999997    0.1935075000000002 Ti
   0.2299519999999999    0.7013280000000000    0.4892583333333335 Ti
   0.2299519999999999    0.7013280000000000    0.1559250000000002 Ti
   0.2299519999999999    0.7013280000000000    0.3225916666666668 Ti
   0.2223479999999999    0.3955090000000000    0.3949218333333335 Ti
   0.2223479999999999    0.3955090000000000    0.0615885000000001 Ti
   0.2223479999999999    0.3955090000000000    0.2282551666666668 Ti
   0.5601389999999993    0.3160910000000000    0.3477513333333335 Ti
   0.5601389999999993    0.3160910000000000    0.0144180000000002 Ti
   0.5601389999999993    0.3160910000000000    0.1810846666666668 Ti
   0.0458439999999990    0.0765540000000000    0.3534163333333334 Ti
   0.0458439999999990    0.0765540000000000    0.0200830000000001 Ti
   0.0458439999999990    0.0765540000000000    0.1867496666666668 Ti
   0.7670669999999988    0.1698310000000008    0.3909823333333333 Ti
   0.7670669999999988    0.1698310000000008    0.0576490000000000 Ti
   0.7670669999999988    0.1698310000000008    0.2243156666666667 Ti
   0.0141669999999990    0.1413960000000010    0.4546820000000000 Ti
   0.0141669999999990    0.1413960000000010    0.1213486666666667 Ti
   0.0141669999999990    0.1413960000000010    0.2880153333333333 Ti
   0.9002000000000000    0.6815009999999999    0.4571476666666668 Ti
   0.9002000000000000    0.6815009999999999    0.1238143333333336 Ti
   0.9002000000000000    0.6815009999999999    0.2904810000000002 Ti
   0.9040300000000002    0.8948880000000002    0.3490316666666667 Ti
   0.9040300000000002    0.8948880000000002    0.0156983333333334 Ti
   0.9040300000000002    0.8948880000000002    0.1823650000000001 Ti
   0.2487680000000000    0.3399710000000001    0.4528928333333335 Ti
   0.2487680000000000    0.3399710000000001    0.1195595000000000 Ti
   0.2487680000000000    0.3399710000000001    0.2862261666666667 Ti
   0.6409000000000002    0.7353340000000003    0.4298365000000002 Ti
   0.6409000000000002    0.7353340000000003    0.0965031666666667 Ti
   0.6409000000000002    0.7353340000000003    0.2631698333333334 Ti
   0.6138279999999990    0.8367120000000000    0.4601475000000001 Ti
   0.6138279999999990    0.8367120000000000    0.1268141666666668 Ti
   0.6138279999999990    0.8367120000000000    0.2934808333333335 Ti
   0.5144870000000001    0.1248010000000002    0.4791911666666668 Ti
   0.5144870000000001    0.1248010000000002    0.1458578333333334 Ti
   0.5144870000000001    0.1248010000000002    0.3125245000000001 Ti
   0.7612200000000001    0.3121970000000009    0.4446036666666665 Ti
   0.7612200000000001    0.3121970000000009    0.1112703333333332 Ti
   0.7612200000000001    0.3121970000000009    0.2779369999999999 Ti
   0.8739560000000002    0.9910120000000001    0.4772828333333335 O
   0.8739560000000002    0.9910120000000001    0.1439495000000001 O
   0.8739560000000002    0.9910120000000001    0.3106161666666667 O
   0.8036150000000000    0.7133380000000001    0.4288741666666666 O
   0.8036150000000000    0.7133380000000001    0.0955408333333333 O
   0.8036150000000000    0.7133380000000001    0.2622074999999998 O
   0.9485159999999990    0.2054380000000000    0.0039185000000002 O
   0.9485159999999990    0.2054380000000000    0.1705851666666667 O
   0.9485159999999990    0.2054380000000000    0.3372518333333335 O
   0.2662120000000000    0.5014220000000009    0.4748178333333333 O
   0.2662120000000000    0.5014220000000009    0.1414845000000000 O
   0.2662120000000000    0.5014220000000009    0.3081511666666666 O
   0.8931300000000003    0.5236930000000000    0.3838640000000001 O
   0.8931300000000003    0.5236930000000000    0.0505306666666668 O
   0.8931300000000003    0.5236930000000000    0.2171973333333335 O
   0.3974479999999990    0.6925810000000001    0.4713046666666668 O
   0.3974479999999990    0.6925810000000001    0.1379713333333336 O
   0.3974479999999990    0.6925810000000001    0.3046380000000001 O
   0.2208709999999990    0.2082220000000000    0.4926630000000002 O
   0.2208709999999990    0.2082220000000000    0.1593296666666668 O
   0.2208709999999990    0.2082220000000000    0.3259963333333336 O
   0.5392760000000002    0.7732650000000000    0.4955910000000000 O
   0.5392760000000002    0.7732650000000000    0.1622576666666666 O
   0.5392760000000002    0.7732650000000000    0.3289243333333334 O
   0.5830440000000002    0.3545419999999999    0.4809780000000001 O
   0.5830440000000002    0.3545419999999999    0.1476446666666668 O
   0.5830440000000002    0.3545419999999999    0.3143113333333333 O
   0.1244670000000000    0.4280370000000000    0.4509028333333333 O
   0.1244670000000000    0.4280370000000000    0.1175694999999999 O
   0.1244670000000000    0.4280370000000000    0.2842361666666665 O
   0.0680549999999990    0.6614070000000000    0.3392518333333335 O
   0.0680549999999990    0.6614070000000000    0.0059185000000000 O
   0.0680549999999990    0.6614070000000000    0.1725851666666667 O
   0.2100409999999990    0.8127910000000002    0.4502865000000001 O
   0.2100409999999990    0.8127910000000002    0.1169531666666668 O
   0.2100409999999990    0.8127910000000002    0.2836198333333334 O
   0.6015980000000001    0.2259720000000008    0.4405141666666667 O
   0.6015980000000001    0.2259720000000008    0.1071808333333333 O
   0.6015980000000001    0.2259720000000008    0.2738475000000000 O
   0.9369569999999992    0.8329630000000001    0.4489068333333333 O
   0.9369569999999992    0.8329630000000001    0.1155734999999999 O
   0.9369569999999992    0.8329630000000001    0.2822401666666666 O
   0.7478680000000001    0.3017190000000008    0.3499763333333333 O
   0.7478680000000001    0.3017190000000008    0.0166430000000000 O
   0.7478680000000001    0.3017190000000008    0.1833096666666667 O
   0.1286800000000000    0.6762770000000001    0.4028368333333334 O
   0.1286800000000000    0.6762770000000001    0.0695035000000002 O
   0.1286800000000000    0.6762770000000001    0.2361701666666668 O
   0.3732089999999991    0.0628869999999998    0.4719878333333334 O
   0.3732089999999991    0.0628869999999998    0.1386545000000000 O
   0.3732089999999991    0.0628869999999998    0.3053211666666667 O
   0.9236479999999990    0.9405430000000010    0.3707088333333334 O
   0.9236479999999990    0.9405430000000010    0.0373755000000001 O
   0.9236479999999990    0.9405430000000010    0.2040421666666667 O
   0.9223730000000000    0.1389929999999998    0.3931530000000002 O
   0.9223730000000000    0.1389929999999998    0.0598196666666668 O
   0.9223730000000000    0.1389929999999998    0.2264863333333335 O
   0.9020089999999999    0.2535110000000002    0.4403851666666667 O
   0.9020089999999999    0.2535110000000002    0.1070518333333332 O
   0.9020089999999999    0.2535110000000002    0.2737184999999999 O
   0.5288700000000001    0.4666590000000002    0.0030866666666666 O
   0.5288700000000001    0.4666590000000002    0.1697533333333333 O
   0.5288700000000001    0.4666590000000002    0.3364199999999999 O
   0.0372740000000000    0.6255510000000000    0.4524930000000002 O
   0.0372740000000000    0.6255510000000000    0.1191596666666669 O
   0.0372740000000000    0.6255510000000000    0.2858263333333335 O
   0.7350010000000000    0.9933010000000002    0.4339110000000002 O
   0.7350010000000000    0.9933010000000002    0.1005776666666668 O
   0.7350010000000000    0.9933010000000002    0.2672443333333333 O
   0.7777479999999998    0.7652890000000001    0.3658091666666666 O
   0.7777479999999998    0.7652890000000001    0.0324758333333333 O
   0.7777479999999998    0.7652890000000001    0.1991424999999999 O
   0.1128660000000000    0.3028190000000008    0.3895740000000000 O
   0.1128660000000000    0.3028190000000008    0.0562406666666667 O
   0.1128660000000000    0.3028190000000008    0.2229073333333334 O
   0.5646110000000001    0.9682820000000010    0.4956921666666666 O
   0.5646110000000001    0.9682820000000010    0.1623588333333332 O
   0.5646110000000001    0.9682820000000010    0.3290254999999999 O
   0.8562139999999991    0.5527519999999999    0.4967176666666668 O
   0.8562139999999991    0.5527519999999999    0.1633843333333334 O
   0.8562139999999991    0.5527519999999999    0.3300510000000002 O
   0.2876890000000000    0.7950530000000001    0.4969133333333333 O
   0.2876890000000000    0.7950530000000001    0.1635800000000001 O
   0.2876890000000000    0.7950530000000001    0.3302466666666667 O
   0.3119490000000000    0.7310080000000001    0.4214711666666668 O
   0.3119490000000000    0.7310080000000001    0.0881378333333335 O
   0.3119490000000000    0.7310080000000001    0.2548045000000002 O
   0.6368840000000000    0.4425230000000001    0.4232728333333335 O
   0.6368840000000000    0.4425230000000001    0.0899395000000002 O
   0.6368840000000000    0.4425230000000001    0.2566061666666668 O
   0.4617560000000002    0.0854470000000001    0.3493230000000002 O
   0.4617560000000002    0.0854470000000001    0.0159896666666668 O
   0.4617560000000002    0.0854470000000001    0.1826563333333335 O
   0.0542060000000000    0.0632090000000008    0.4910818333333333 O
   0.0542060000000000    0.0632090000000008    0.1577485000000001 O
   0.0542060000000000    0.0632090000000008    0.3244151666666667 O
   0.3509839999999990    0.8173380000000001    0.3665283333333333 O
   0.3509839999999990    0.8173380000000001    0.0331950000000000 O
   0.3509839999999990    0.8173380000000001    0.1998616666666667 O
   0.4720379999999992    0.9702880000000003    0.4479376666666667 O
   0.4720379999999992    0.9702880000000003    0.1146043333333333 O
   0.4720379999999992    0.9702880000000003    0.2812709999999999 O
   0.7638309999999990    0.7918760000000000    0.4866005000000002 O
   0.7638309999999990    0.7918760000000000    0.1532671666666668 O
   0.7638309999999990    0.7918760000000000    0.3199338333333335 O
   0.5759319999999999    0.1332180000000011    0.3870058333333333 O
   0.5759319999999999    0.1332180000000011    0.0536725000000000 O
   0.5759319999999999    0.1332180000000011    0.2203391666666665 O
   0.4226640000000000    0.2914620000000000    0.4593290000000000 O
   0.4226640000000000    0.2914620000000000    0.1259956666666667 O
   0.4226640000000000    0.2914620000000000    0.2926623333333333 O
   0.1914030000000000    0.9599750000000002    0.3710116666666667 O
   0.1914030000000000    0.9599750000000002    0.0376783333333335 O
   0.1914030000000000    0.9599750000000002    0.2043450000000001 O
   0.1594519999999990    0.5195680000000009    0.3912978333333331 O
   0.1594519999999990    0.5195680000000009    0.0579644999999999 O
   0.1594519999999990    0.5195680000000009    0.2246311666666665 O
   0.1384619999999999    0.1140920000000008    0.3764153333333332 O
   0.1384619999999999    0.1140920000000008    0.0430819999999999 O
   0.1384619999999999    0.1140920000000008    0.2097486666666665 O
   0.3836949999999998    0.2549929999999998    0.3563271666666666 O
   0.3836949999999998    0.2549929999999998    0.0229938333333334 O
   0.3836949999999998    0.2549929999999998    0.1896605000000000 O
   0.2678300000000000    0.5161840000000010    0.3522553333333333 O
   0.2678300000000000    0.5161840000000010    0.0189219999999999 O
   0.2678300000000000    0.5161840000000010    0.1855886666666666 O
   0.7179100000000000    0.0698520000000002    0.3683148333333335 O
   0.7179100000000000    0.0698520000000002    0.0349815000000001 O
   0.7179100000000000    0.0698520000000002    0.2016481666666668 O
   0.3878410000000001    0.4028710000000002    0.4025631666666668 O
   0.3878410000000001    0.4028710000000002    0.0692298333333335 O
   0.3878410000000001    0.4028710000000002    0.2358965000000002 O
   0.3703140000000000    0.9993610000000012    0.3991143333333331 O
   0.3703140000000000    0.9993610000000012    0.0657809999999998 O
   0.3703140000000000    0.9993610000000012    0.2324476666666666 O
   0.1724170000000000    0.2708770000000001    0.4377315000000000 O
   0.1724170000000000    0.2708770000000001    0.1043981666666666 O
   0.1724170000000000    0.2708770000000001    0.2710648333333333 O
   0.0296230000000000    0.0548199999999999    0.4403613333333335 O
   0.0296230000000000    0.0548199999999999    0.1070280000000001 O
   0.0296230000000000    0.0548199999999999    0.2736946666666667 O
   0.0428710000000000    0.8070050000000001    0.3542668333333335 O
   0.0428710000000000    0.8070050000000001    0.0209335000000001 O
   0.0428710000000000    0.8070050000000001    0.1876001666666668 O
   0.7001120000000000    0.1780890000000001    0.4820233333333334 O
   0.7001120000000000    0.1780890000000001    0.1486899999999999 O
   0.7001120000000000    0.1780890000000001    0.3153566666666667 O
   0.5427529999999994    0.6028380000000010    0.4376784999999999 O
   0.5427529999999994    0.6028380000000010    0.1043451666666666 O
   0.5427529999999994    0.6028380000000010    0.2710118333333333 O
   0.6677839999999992    0.7085150000000000    0.4633815000000001 O
   0.6677839999999992    0.7085150000000000    0.1300481666666668 O
   0.6677839999999992    0.7085150000000000    0.2967148333333334 O
   0.5019669999999992    0.2638999999999998    0.3964583333333335 O
   0.5019669999999992    0.2638999999999998    0.0631250000000002 O
   0.5019669999999992    0.2638999999999998    0.2297916666666668 O
   0.5481920000000000    0.8703910000000000    0.4253406666666668 O
   0.5481920000000000    0.8703910000000000    0.0920073333333334 O
   0.5481920000000000    0.8703910000000000    0.2586740000000002 O
   0.5340460000000001    0.6660159999999999    0.3827728333333333 O
   0.5340460000000001    0.6660159999999999    0.0494395000000000 O
   0.5340460000000001    0.6660159999999999    0.2161061666666667 O
   0.3606370000000000    0.5156370000000000    0.4287416666666668 O
   0.3606370000000000    0.5156370000000000    0.0954083333333335 O
   0.3606370000000000    0.5156370000000000    0.2620750000000001 O
   0.7773439999999990    0.3032550000000002    0.3912910000000001 O
   0.7773439999999990    0.3032550000000002    0.0579576666666668 O
   0.7773439999999990    0.3032550000000002    0.2246243333333335 O
   0.2641879999999999    0.1172580000000010    0.4141988333333333 O
   0.2641879999999999    0.1172580000000010    0.0808655000000000 O
   0.2641879999999999    0.1172580000000010    0.2475321666666666 O
   0.8271069999999990    0.3857580000000001    0.4577585000000001 O
   0.8271069999999990    0.3857580000000001    0.1244251666666668 O
   0.8271069999999990    0.3857580000000001    0.2910918333333335 O
   0.6517999999999999    0.5210360000000001    0.3707168333333334 O
   0.6517999999999999    0.5210360000000001    0.0373835000000001 O
   0.6517999999999999    0.5210360000000001    0.2040501666666669 O
   0.5605660000000001    0.8361070000000010    0.3922678333333331 O
   0.5605660000000001    0.8361070000000010    0.0589344999999998 O
   0.5605660000000001    0.8361070000000010    0.2256011666666665 O
