Ti90 O180
1.0
  10.7847349425586163    0.0000000000000000    0.0060328200944446
  -1.2247047225377732   10.4583487854001529    9.3482210382165096
   0.0000000000000000    0.0000000000000000   62.9170570674836966
Ti O
90 180
direct
   0.3479379999999991    0.8204740000000001    0.4539332500000001 Ti
   0.3479379999999991    0.8204740000000001    0.1205999166666669 Ti
   0.3479379999999991    0.8204740000000001    0.2872665833333335 Ti
   0.1008690000000000    0.1441720000000008    0.4235989166666667 Ti
   0.1008690000000000    0.1441720000000008    0.0902655833333333 Ti
   0.1008690000000000    0.1441720000000008    0.2569322499999999 Ti
   0.8065249999999994    0.4774350000000001    0.3874157500000001 Ti
   0.8065249999999994    0.4774350000000001    0.0540824166666668 Ti
   0.8065249999999994    0.4774350000000001    0.2207490833333334 Ti
   0.7909490000000001    0.2465539999999999    0.0186075833333335 Ti
   0.7909490000000001    0.2465539999999999    0.1852742500000003 Ti
   0.7909490000000001    0.2465539999999999    0.3519409166666669 Ti
   0.4398120000000000    0.7044890000000010    0.4213054166666667 Ti
   0.4398120000000000    0.7044890000000010    0.0879720833333332 Ti
   0.4398120000000000    0.7044890000000010    0.2546387499999999 Ti
   0.1631409999999990    0.5778510000000001    0.4643119166666668 Ti
   0.1631409999999990    0.5778510000000001    0.1309785833333335 Ti
   0.1631409999999990    0.5778510000000001    0.2976452500000001 Ti
   0.5602509999999991    0.0046750000000008    0.4029500833333334 Ti
   0.5602509999999991    0.0046750000000008    0.0696167500000000 Ti
   0.5602509999999991    0.0046750000000008    0.2362834166666667 Ti
   0.5211030000000000    0.4422479999999999    0.4662734166666668 Ti
   0.5211030000000000    0.4422479999999999    0.1329400833333335 Ti
   0.5211030000000000    0.4422479999999999    0.2996067500000002 Ti
   0.5445340000000000    0.3619320000000000    0.4265679166666667 Ti
   0.5445340000000000    0.3619320000000000    0.0932345833333332 Ti
   0.5445340000000000    0.3619320000000000    0.2599012499999999 Ti
   0.3685410000000002    0.5153020000000010    0.0164544166666665 Ti
   0.3685410000000002    0.5153020000000010    0.1831210833333331 Ti
   0.3685410000000002    0.5153020000000010    0.3497877499999999 Ti
   0.0395639999999990    0.6267690000000000    0.3935132500000001 Ti
   0.0395639999999990    0.6267690000000000    0.0601799166666667 Ti
   0.0395639999999990    0.6267690000000000    0.2268465833333334 Ti
   0.4267149999999991    0.1029350000000001    0.4327269166666668 Ti
   0.4267149999999991    0.1029350000000001    0.0993935833333334 Ti
   0.4267149999999991    0.1029350000000001    0.2660602500000001 Ti
   0.4301250000000000    0.9143660000000000    0.0076227500000000 Ti
   0.4301250000000000    0.9143660000000000    0.1742894166666667 Ti
   0.4301250000000000    0.9143660000000000    0.3409560833333333 Ti
   0.8723019999999996    0.9280300000000002    0.4778140833333335 Ti
   0.8723019999999996    0.9280300000000002    0.1444807500000001 Ti
   0.8723019999999996    0.9280300000000002    0.3111474166666667 Ti
   0.1865880000000000    0.8336970000000010    0.3920612499999998 Ti
   0.1865880000000000    0.8336970000000010    0.0587279166666665 Ti
   0.1865880000000000    0.8336970000000010    0.2253945833333332 Ti
   0.6539610000000002    0.6951250000000000    0.3791140833333333 Ti
   0.6539610000000002    0.6951250000000000    0.0457807500000000 Ti
   0.6539610000000002    0.6951250000000000    0.2124474166666667 Ti
   0.3001759999999999    0.1249779999999997    0.3817535833333335 Ti
   0.3001759999999999    0.1249779999999997    0.0484202500000002 Ti
   0.3001759999999999    0.1249779999999997    0.2150869166666668 Ti
   0.2299519999999999    0.7013280000000000    0.0108377500000002 Ti
   0.2299519999999999    0.7013280000000000    0.1775044166666669 Ti
   0.2299519999999999    0.7013280000000000    0.3441710833333335 Ti
   0.2223479999999999    0.3955090000000000    0.4165012500000002 Ti
   0.2223479999999999    0.3955090000000000    0.0831679166666668 Ti
   0.2223479999999999    0.3955090000000000    0.2498345833333335 Ti
   0.5601389999999993    0.3160910000000000    0.3693307500000002 Ti
   0.5601389999999993    0.3160910000000000    0.0359974166666668 Ti
   0.5601389999999993    0.3160910000000000    0.2026640833333335 Ti
   0.0458439999999990    0.0765540000000000    0.3749957500000002 Ti
   0.0458439999999990    0.0765540000000000    0.0416624166666668 Ti
   0.0458439999999990    0.0765540000000000    0.2083290833333335 Ti
   0.7670669999999988    0.1698310000000008    0.4125617500000001 Ti
   0.7670669999999988    0.1698310000000008    0.0792284166666667 Ti
   0.7670669999999988    0.1698310000000008    0.2458950833333334 Ti
   0.0141669999999990    0.1413960000000010    0.4762614166666667 Ti
   0.0141669999999990    0.1413960000000010    0.1429280833333333 Ti
   0.0141669999999990    0.1413960000000010    0.3095947500000000 Ti
   0.9002000000000000    0.6815009999999999    0.4787270833333335 Ti
   0.9002000000000000    0.6815009999999999    0.1453937500000003 Ti
   0.9002000000000000    0.6815009999999999    0.3120604166666669 Ti
   0.9040300000000002    0.8948880000000002    0.3706110833333334 Ti
   0.9040300000000002    0.8948880000000002    0.0372777500000001 Ti
   0.9040300000000002    0.8948880000000002    0.2039444166666668 Ti
   0.2487680000000000    0.3399710000000001    0.4744722500000002 Ti
   0.2487680000000000    0.3399710000000001    0.1411389166666667 Ti
   0.2487680000000000    0.3399710000000001    0.3078055833333334 Ti
   0.6409000000000002    0.7353340000000003    0.4514159166666668 Ti
   0.6409000000000002    0.7353340000000003    0.1180825833333334 Ti
   0.6409000000000002    0.7353340000000003    0.2847492500000001 Ti
   0.6138279999999990    0.8367120000000000    0.4817269166666668 Ti
   0.6138279999999990    0.8367120000000000    0.1483935833333335 Ti
   0.6138279999999990    0.8367120000000000    0.3150602500000002 Ti
   0.5144870000000001    0.1248010000000002    0.0007705833333335 Ti
   0.5144870000000001    0.1248010000000002    0.1674372500000001 Ti
   0.5144870000000001    0.1248010000000002    0.3341039166666668 Ti
   0.7612200000000001    0.3121970000000009    0.4661830833333332 Ti
   0.7612200000000001    0.3121970000000009    0.1328497499999999 Ti
   0.7612200000000001    0.3121970000000009    0.2995164166666666 Ti
   0.8739560000000002    0.9910120000000001    0.4988622500000002 O
   0.8739560000000002    0.9910120000000001    0.1655289166666668 O
   0.8739560000000002    0.9910120000000001    0.3321955833333334 O
   0.8036150000000000    0.7133380000000001    0.4504535833333333 O
   0.8036150000000000    0.7133380000000001    0.1171202500000000 O
   0.8036150000000000    0.7133380000000001    0.2837869166666664 O
   0.9485159999999990    0.2054380000000000    0.0254979166666668 O
   0.9485159999999990    0.2054380000000000    0.1921645833333334 O
   0.9485159999999990    0.2054380000000000    0.3588312500000002 O
   0.2662120000000000    0.5014220000000009    0.4963972500000000 O
   0.2662120000000000    0.5014220000000009    0.1630639166666667 O
   0.2662120000000000    0.5014220000000009    0.3297305833333333 O
   0.8931300000000003    0.5236930000000000    0.4054434166666668 O
   0.8931300000000003    0.5236930000000000    0.0721100833333334 O
   0.8931300000000003    0.5236930000000000    0.2387767500000001 O
   0.3974479999999990    0.6925810000000001    0.4928840833333334 O
   0.3974479999999990    0.6925810000000001    0.1595507500000002 O
   0.3974479999999990    0.6925810000000001    0.3262174166666668 O
   0.2208709999999990    0.2082220000000000    0.0142424166666669 O
   0.2208709999999990    0.2082220000000000    0.1809090833333335 O
   0.2208709999999990    0.2082220000000000    0.3475757500000002 O
   0.5392760000000002    0.7732650000000000    0.0171704166666667 O
   0.5392760000000002    0.7732650000000000    0.1838370833333333 O
   0.5392760000000002    0.7732650000000000    0.3505037500000001 O
   0.5830440000000002    0.3545419999999999    0.0025574166666668 O
   0.5830440000000002    0.3545419999999999    0.1692240833333335 O
   0.5830440000000002    0.3545419999999999    0.3358907500000000 O
   0.1244670000000000    0.4280370000000000    0.4724822500000000 O
   0.1244670000000000    0.4280370000000000    0.1391489166666666 O
   0.1244670000000000    0.4280370000000000    0.3058155833333332 O
   0.0680549999999990    0.6614070000000000    0.3608312500000002 O
   0.0680549999999990    0.6614070000000000    0.0274979166666667 O
   0.0680549999999990    0.6614070000000000    0.1941645833333334 O
   0.2100409999999990    0.8127910000000002    0.4718659166666668 O
   0.2100409999999990    0.8127910000000002    0.1385325833333335 O
   0.2100409999999990    0.8127910000000002    0.3051992500000001 O
   0.6015980000000001    0.2259720000000008    0.4620935833333333 O
   0.6015980000000001    0.2259720000000008    0.1287602500000000 O
   0.6015980000000001    0.2259720000000008    0.2954269166666667 O
   0.9369569999999992    0.8329630000000001    0.4704862500000000 O
   0.9369569999999992    0.8329630000000001    0.1371529166666666 O
   0.9369569999999992    0.8329630000000001    0.3038195833333333 O
   0.7478680000000001    0.3017190000000008    0.3715557500000001 O
   0.7478680000000001    0.3017190000000008    0.0382224166666667 O
   0.7478680000000001    0.3017190000000008    0.2048890833333334 O
   0.1286800000000000    0.6762770000000001    0.4244162500000001 O
   0.1286800000000000    0.6762770000000001    0.0910829166666668 O
   0.1286800000000000    0.6762770000000001    0.2577495833333335 O
   0.3732089999999991    0.0628869999999998    0.4935672500000000 O
   0.3732089999999991    0.0628869999999998    0.1602339166666667 O
   0.3732089999999991    0.0628869999999998    0.3269005833333334 O
   0.9236479999999990    0.9405430000000010    0.3922882500000001 O
   0.9236479999999990    0.9405430000000010    0.0589549166666667 O
   0.9236479999999990    0.9405430000000010    0.2256215833333334 O
   0.9223730000000000    0.1389929999999998    0.4147324166666668 O
   0.9223730000000000    0.1389929999999998    0.0813990833333335 O
   0.9223730000000000    0.1389929999999998    0.2480657500000002 O
   0.9020089999999999    0.2535110000000002    0.4619645833333333 O
   0.9020089999999999    0.2535110000000002    0.1286312499999999 O
   0.9020089999999999    0.2535110000000002    0.2952979166666665 O
   0.5288700000000001    0.4666590000000002    0.0246660833333333 O
   0.5288700000000001    0.4666590000000002    0.1913327500000000 O
   0.5288700000000001    0.4666590000000002    0.3579994166666666 O
   0.0372740000000000    0.6255510000000000    0.4740724166666669 O
   0.0372740000000000    0.6255510000000000    0.1407390833333336 O
   0.0372740000000000    0.6255510000000000    0.3074057500000001 O
   0.7350010000000000    0.9933010000000002    0.4554904166666668 O
   0.7350010000000000    0.9933010000000002    0.1221570833333335 O
   0.7350010000000000    0.9933010000000002    0.2888237500000000 O
   0.7777479999999998    0.7652890000000001    0.3873885833333333 O
   0.7777479999999998    0.7652890000000001    0.0540552500000000 O
   0.7777479999999998    0.7652890000000001    0.2207219166666666 O
   0.1128660000000000    0.3028190000000008    0.4111534166666667 O
   0.1128660000000000    0.3028190000000008    0.0778200833333334 O
   0.1128660000000000    0.3028190000000008    0.2444867500000001 O
   0.5646110000000001    0.9682820000000010    0.0172715833333333 O
   0.5646110000000001    0.9682820000000010    0.1839382499999999 O
   0.5646110000000001    0.9682820000000010    0.3506049166666665 O
   0.8562139999999991    0.5527519999999999    0.0182970833333335 O
   0.8562139999999991    0.5527519999999999    0.1849637500000001 O
   0.8562139999999991    0.5527519999999999    0.3516304166666669 O
   0.2876890000000000    0.7950530000000001    0.0184927500000000 O
   0.2876890000000000    0.7950530000000001    0.1851594166666667 O
   0.2876890000000000    0.7950530000000001    0.3518260833333334 O
   0.3119490000000000    0.7310080000000001    0.4430505833333335 O
   0.3119490000000000    0.7310080000000001    0.1097172500000002 O
   0.3119490000000000    0.7310080000000001    0.2763839166666668 O
   0.6368840000000000    0.4425230000000001    0.4448522500000002 O
   0.6368840000000000    0.4425230000000001    0.1115189166666669 O
   0.6368840000000000    0.4425230000000001    0.2781855833333335 O
   0.4617560000000002    0.0854470000000001    0.3709024166666668 O
   0.4617560000000002    0.0854470000000001    0.0375690833333335 O
   0.4617560000000002    0.0854470000000001    0.2042357500000002 O
   0.0542060000000000    0.0632090000000008    0.0126612500000000 O
   0.0542060000000000    0.0632090000000008    0.1793279166666668 O
   0.0542060000000000    0.0632090000000008    0.3459945833333334 O
   0.3509839999999990    0.8173380000000001    0.3881077500000000 O
   0.3509839999999990    0.8173380000000001    0.0547744166666667 O
   0.3509839999999990    0.8173380000000001    0.2214410833333333 O
   0.4720379999999992    0.9702880000000003    0.4695170833333333 O
   0.4720379999999992    0.9702880000000003    0.1361837500000000 O
   0.4720379999999992    0.9702880000000003    0.3028504166666666 O
   0.7638309999999990    0.7918760000000000    0.0081799166666668 O
   0.7638309999999990    0.7918760000000000    0.1748465833333335 O
   0.7638309999999990    0.7918760000000000    0.3415132500000002 O
   0.5759319999999999    0.1332180000000011    0.4085852500000000 O
   0.5759319999999999    0.1332180000000011    0.0752519166666666 O
   0.5759319999999999    0.1332180000000011    0.2419185833333332 O
   0.4226640000000000    0.2914620000000000    0.4809084166666667 O
   0.4226640000000000    0.2914620000000000    0.1475750833333334 O
   0.4226640000000000    0.2914620000000000    0.3142417500000000 O
   0.1914030000000000    0.9599750000000002    0.3925910833333335 O
   0.1914030000000000    0.9599750000000002    0.0592577500000001 O
   0.1914030000000000    0.9599750000000002    0.2259244166666668 O
   0.1594519999999990    0.5195680000000009    0.4128772499999999 O
   0.1594519999999990    0.5195680000000009    0.0795439166666665 O
   0.1594519999999990    0.5195680000000009    0.2462105833333332 O
   0.1384619999999999    0.1140920000000008    0.3979947499999999 O
   0.1384619999999999    0.1140920000000008    0.0646614166666666 O
   0.1384619999999999    0.1140920000000008    0.2313280833333332 O
   0.3836949999999998    0.2549929999999998    0.3779065833333334 O
   0.3836949999999998    0.2549929999999998    0.0445732500000000 O
   0.3836949999999998    0.2549929999999998    0.2112399166666667 O
   0.2678300000000000    0.5161840000000010    0.3738347500000000 O
   0.2678300000000000    0.5161840000000010    0.0405014166666666 O
   0.2678300000000000    0.5161840000000010    0.2071680833333333 O
   0.7179100000000000    0.0698520000000002    0.3898942500000002 O
   0.7179100000000000    0.0698520000000002    0.0565609166666668 O
   0.7179100000000000    0.0698520000000002    0.2232275833333335 O
   0.3878410000000001    0.4028710000000002    0.4241425833333334 O
   0.3878410000000001    0.4028710000000002    0.0908092500000001 O
   0.3878410000000001    0.4028710000000002    0.2574759166666669 O
   0.3703140000000000    0.9993610000000012    0.4206937499999999 O
   0.3703140000000000    0.9993610000000012    0.0873604166666665 O
   0.3703140000000000    0.9993610000000012    0.2540270833333333 O
   0.1724170000000000    0.2708770000000001    0.4593109166666667 O
   0.1724170000000000    0.2708770000000001    0.1259775833333333 O
   0.1724170000000000    0.2708770000000001    0.2926442500000000 O
   0.0296230000000000    0.0548199999999999    0.4619407500000002 O
   0.0296230000000000    0.0548199999999999    0.1286074166666668 O
   0.0296230000000000    0.0548199999999999    0.2952740833333334 O
   0.0428710000000000    0.8070050000000001    0.3758462500000002 O
   0.0428710000000000    0.8070050000000001    0.0425129166666668 O
   0.0428710000000000    0.8070050000000001    0.2091795833333335 O
   0.7001120000000000    0.1780890000000001    0.0036027500000000 O
   0.7001120000000000    0.1780890000000001    0.1702694166666666 O
   0.7001120000000000    0.1780890000000001    0.3369360833333334 O
   0.5427529999999994    0.6028380000000010    0.4592579166666666 O
   0.5427529999999994    0.6028380000000010    0.1259245833333333 O
   0.5427529999999994    0.6028380000000010    0.2925912500000000 O
   0.6677839999999992    0.7085150000000000    0.4849609166666669 O
   0.6677839999999992    0.7085150000000000    0.1516275833333335 O
   0.6677839999999992    0.7085150000000000    0.3182942500000001 O
   0.5019669999999992    0.2638999999999998    0.4180377500000002 O
   0.5019669999999992    0.2638999999999998    0.0847044166666669 O
   0.5019669999999992    0.2638999999999998    0.2513710833333335 O
   0.5481920000000000    0.8703910000000000    0.4469200833333334 O
   0.5481920000000000    0.8703910000000000    0.1135867500000001 O
   0.5481920000000000    0.8703910000000000    0.2802534166666669 O
   0.5340460000000001    0.6660159999999999    0.4043522500000000 O
   0.5340460000000001    0.6660159999999999    0.0710189166666667 O
   0.5340460000000001    0.6660159999999999    0.2376855833333334 O
   0.3606370000000000    0.5156370000000000    0.4503210833333335 O
   0.3606370000000000    0.5156370000000000    0.1169877500000002 O
   0.3606370000000000    0.5156370000000000    0.2836544166666668 O
   0.7773439999999990    0.3032550000000002    0.4128704166666668 O
   0.7773439999999990    0.3032550000000002    0.0795370833333335 O
   0.7773439999999990    0.3032550000000002    0.2462037500000002 O
   0.2641879999999999    0.1172580000000010    0.4357782500000000 O
   0.2641879999999999    0.1172580000000010    0.1024449166666667 O
   0.2641879999999999    0.1172580000000010    0.2691115833333332 O
   0.8271069999999990    0.3857580000000001    0.4793379166666668 O
   0.8271069999999990    0.3857580000000001    0.1460045833333334 O
   0.8271069999999990    0.3857580000000001    0.3126712500000002 O
   0.6517999999999999    0.5210360000000001    0.3922962500000001 O
   0.6517999999999999    0.5210360000000001    0.0589629166666668 O
   0.6517999999999999    0.5210360000000001    0.2256295833333335 O
   0.5605660000000001    0.8361070000000010    0.4138472499999998 O
   0.5605660000000001    0.8361070000000010    0.0805139166666665 O
   0.5605660000000001    0.8361070000000010    0.2471805833333332 O
