Ti90 O180
1.0
  10.7847349425586163    0.0000000000000000    0.0060328200944446
  -1.2247047225377732   10.4583487854001529    9.3482210382165096
   0.0000000000000000    0.0000000000000000   62.9170570674836966
Ti O
90 180
direct
   0.3479379999999991    0.8204740000000001    0.0315150833333335 Ti
   0.3479379999999991    0.8204740000000001    0.1981817500000002 Ti
   0.3479379999999991    0.8204740000000001    0.3648484166666668 Ti
   0.1008690000000000    0.1441720000000008    0.0011807500000000 Ti
   0.1008690000000000    0.1441720000000008    0.1678474166666666 Ti
   0.1008690000000000    0.1441720000000008    0.3345140833333333 Ti
   0.8065249999999994    0.4774350000000001    0.4649975833333335 Ti
   0.8065249999999994    0.4774350000000001    0.1316642500000001 Ti
   0.8065249999999994    0.4774350000000001    0.2983309166666668 Ti
   0.7909490000000001    0.2465539999999999    0.0961894166666668 Ti
   0.7909490000000001    0.2465539999999999    0.2628560833333336 Ti
   0.7909490000000001    0.2465539999999999    0.4295227500000002 Ti
   0.4398120000000000    0.7044890000000010    0.4988872500000000 Ti
   0.4398120000000000    0.7044890000000010    0.1655539166666666 Ti
   0.4398120000000000    0.7044890000000010    0.3322205833333333 Ti
   0.1631409999999990    0.5778510000000001    0.0418937500000002 Ti
   0.1631409999999990    0.5778510000000001    0.2085604166666668 Ti
   0.1631409999999990    0.5778510000000001    0.3752270833333334 Ti
   0.5602509999999991    0.0046750000000008    0.4805319166666667 Ti
   0.5602509999999991    0.0046750000000008    0.1471985833333334 Ti
   0.5602509999999991    0.0046750000000008    0.3138652500000001 Ti
   0.5211030000000000    0.4422479999999999    0.0438552500000002 Ti
   0.5211030000000000    0.4422479999999999    0.2105219166666669 Ti
   0.5211030000000000    0.4422479999999999    0.3771885833333335 Ti
   0.5445340000000000    0.3619320000000000    0.0041497500000000 Ti
   0.5445340000000000    0.3619320000000000    0.1708164166666666 Ti
   0.5445340000000000    0.3619320000000000    0.3374830833333333 Ti
   0.3685410000000002    0.5153020000000010    0.0940362499999998 Ti
   0.3685410000000002    0.5153020000000010    0.2607029166666665 Ti
   0.3685410000000002    0.5153020000000010    0.4273695833333332 Ti
   0.0395639999999990    0.6267690000000000    0.4710950833333335 Ti
   0.0395639999999990    0.6267690000000000    0.1377617500000001 Ti
   0.0395639999999990    0.6267690000000000    0.3044284166666668 Ti
   0.4267149999999991    0.1029350000000001    0.0103087500000001 Ti
   0.4267149999999991    0.1029350000000001    0.1769754166666667 Ti
   0.4267149999999991    0.1029350000000001    0.3436420833333335 Ti
   0.4301250000000000    0.9143660000000000    0.0852045833333334 Ti
   0.4301250000000000    0.9143660000000000    0.2518712500000000 Ti
   0.4301250000000000    0.9143660000000000    0.4185379166666667 Ti
   0.8723019999999996    0.9280300000000002    0.0553959166666668 Ti
   0.8723019999999996    0.9280300000000002    0.2220625833333335 Ti
   0.8723019999999996    0.9280300000000002    0.3887292500000000 Ti
   0.1865880000000000    0.8336970000000010    0.4696430833333332 Ti
   0.1865880000000000    0.8336970000000010    0.1363097499999998 Ti
   0.1865880000000000    0.8336970000000010    0.3029764166666665 Ti
   0.6539610000000002    0.6951250000000000    0.4566959166666666 Ti
   0.6539610000000002    0.6951250000000000    0.1233625833333334 Ti
   0.6539610000000002    0.6951250000000000    0.2900292500000001 Ti
   0.3001759999999999    0.1249779999999997    0.4593354166666669 Ti
   0.3001759999999999    0.1249779999999997    0.1260020833333336 Ti
   0.3001759999999999    0.1249779999999997    0.2926687500000002 Ti
   0.2299519999999999    0.7013280000000000    0.0884195833333335 Ti
   0.2299519999999999    0.7013280000000000    0.2550862500000002 Ti
   0.2299519999999999    0.7013280000000000    0.4217529166666669 Ti
   0.2223479999999999    0.3955090000000000    0.4940830833333335 Ti
   0.2223479999999999    0.3955090000000000    0.1607497500000001 Ti
   0.2223479999999999    0.3955090000000000    0.3274164166666668 Ti
   0.5601389999999993    0.3160910000000000    0.4469125833333335 Ti
   0.5601389999999993    0.3160910000000000    0.1135792500000002 Ti
   0.5601389999999993    0.3160910000000000    0.2802459166666668 Ti
   0.0458439999999990    0.0765540000000000    0.4525775833333335 Ti
   0.0458439999999990    0.0765540000000000    0.1192442500000002 Ti
   0.0458439999999990    0.0765540000000000    0.2859109166666668 Ti
   0.7670669999999988    0.1698310000000008    0.4901435833333334 Ti
   0.7670669999999988    0.1698310000000008    0.1568102500000000 Ti
   0.7670669999999988    0.1698310000000008    0.3234769166666667 Ti
   0.0141669999999990    0.1413960000000010    0.0538432500000000 Ti
   0.0141669999999990    0.1413960000000010    0.2205099166666667 Ti
   0.0141669999999990    0.1413960000000010    0.3871765833333333 Ti
   0.9002000000000000    0.6815009999999999    0.0563089166666669 Ti
   0.9002000000000000    0.6815009999999999    0.2229755833333336 Ti
   0.9002000000000000    0.6815009999999999    0.3896422500000002 Ti
   0.9040300000000002    0.8948880000000002    0.4481929166666668 Ti
   0.9040300000000002    0.8948880000000002    0.1148595833333334 Ti
   0.9040300000000002    0.8948880000000002    0.2815262500000001 Ti
   0.2487680000000000    0.3399710000000001    0.0520540833333335 Ti
   0.2487680000000000    0.3399710000000001    0.2187207500000001 Ti
   0.2487680000000000    0.3399710000000001    0.3853874166666668 Ti
   0.6409000000000002    0.7353340000000003    0.0289977500000002 Ti
   0.6409000000000002    0.7353340000000003    0.1956644166666667 Ti
   0.6409000000000002    0.7353340000000003    0.3623310833333335 Ti
   0.6138279999999990    0.8367120000000000    0.0593087500000001 Ti
   0.6138279999999990    0.8367120000000000    0.2259754166666669 Ti
   0.6138279999999990    0.8367120000000000    0.3926420833333335 Ti
   0.5144870000000001    0.1248010000000002    0.0783524166666668 Ti
   0.5144870000000001    0.1248010000000002    0.2450190833333334 Ti
   0.5144870000000001    0.1248010000000002    0.4116857500000001 Ti
   0.7612200000000001    0.3121970000000009    0.0437649166666665 Ti
   0.7612200000000001    0.3121970000000009    0.2104315833333332 Ti
   0.7612200000000001    0.3121970000000009    0.3770982499999999 Ti
   0.8739560000000002    0.9910120000000001    0.0764440833333335 O
   0.8739560000000002    0.9910120000000001    0.2431107500000002 O
   0.8739560000000002    0.9910120000000001    0.4097774166666668 O
   0.8036150000000000    0.7133380000000001    0.0280354166666666 O
   0.8036150000000000    0.7133380000000001    0.1947020833333333 O
   0.8036150000000000    0.7133380000000001    0.3613687499999998 O
   0.9485159999999990    0.2054380000000000    0.1030797500000002 O
   0.9485159999999990    0.2054380000000000    0.2697464166666667 O
   0.9485159999999990    0.2054380000000000    0.4364130833333336 O
   0.2662120000000000    0.5014220000000009    0.0739790833333333 O
   0.2662120000000000    0.5014220000000009    0.2406457500000000 O
   0.2662120000000000    0.5014220000000009    0.4073124166666667 O
   0.8931300000000003    0.5236930000000000    0.4830252500000002 O
   0.8931300000000003    0.5236930000000000    0.1496919166666668 O
   0.8931300000000003    0.5236930000000000    0.3163585833333335 O
   0.3974479999999990    0.6925810000000001    0.0704659166666668 O
   0.3974479999999990    0.6925810000000001    0.2371325833333336 O
   0.3974479999999990    0.6925810000000001    0.4037992500000002 O
   0.2208709999999990    0.2082220000000000    0.0918242500000002 O
   0.2208709999999990    0.2082220000000000    0.2584909166666668 O
   0.2208709999999990    0.2082220000000000    0.4251575833333336 O
   0.5392760000000002    0.7732650000000000    0.0947522500000000 O
   0.5392760000000002    0.7732650000000000    0.2614189166666667 O
   0.5392760000000002    0.7732650000000000    0.4280855833333334 O
   0.5830440000000002    0.3545419999999999    0.0801392500000002 O
   0.5830440000000002    0.3545419999999999    0.2468059166666668 O
   0.5830440000000002    0.3545419999999999    0.4134725833333334 O
   0.1244670000000000    0.4280370000000000    0.0500640833333333 O
   0.1244670000000000    0.4280370000000000    0.2167307499999999 O
   0.1244670000000000    0.4280370000000000    0.3833974166666665 O
   0.0680549999999990    0.6614070000000000    0.4384130833333335 O
   0.0680549999999990    0.6614070000000000    0.1050797500000001 O
   0.0680549999999990    0.6614070000000000    0.2717464166666667 O
   0.2100409999999990    0.8127910000000002    0.0494477500000001 O
   0.2100409999999990    0.8127910000000002    0.2161144166666668 O
   0.2100409999999990    0.8127910000000002    0.3827810833333334 O
   0.6015980000000001    0.2259720000000008    0.0396754166666667 O
   0.6015980000000001    0.2259720000000008    0.2063420833333334 O
   0.6015980000000001    0.2259720000000008    0.3730087500000000 O
   0.9369569999999992    0.8329630000000001    0.0480680833333333 O
   0.9369569999999992    0.8329630000000001    0.2147347500000000 O
   0.9369569999999992    0.8329630000000001    0.3814014166666666 O
   0.7478680000000001    0.3017190000000008    0.4491375833333334 O
   0.7478680000000001    0.3017190000000008    0.1158042500000001 O
   0.7478680000000001    0.3017190000000008    0.2824709166666667 O
   0.1286800000000000    0.6762770000000001    0.0019980833333335 O
   0.1286800000000000    0.6762770000000001    0.1686647500000002 O
   0.1286800000000000    0.6762770000000001    0.3353314166666668 O
   0.3732089999999991    0.0628869999999998    0.0711490833333334 O
   0.3732089999999991    0.0628869999999998    0.2378157500000000 O
   0.3732089999999991    0.0628869999999998    0.4044824166666667 O
   0.9236479999999990    0.9405430000000010    0.4698700833333334 O
   0.9236479999999990    0.9405430000000010    0.1365367500000001 O
   0.9236479999999990    0.9405430000000010    0.3032034166666667 O
   0.9223730000000000    0.1389929999999998    0.4923142500000002 O
   0.9223730000000000    0.1389929999999998    0.1589809166666669 O
   0.9223730000000000    0.1389929999999998    0.3256475833333335 O
   0.9020089999999999    0.2535110000000002    0.0395464166666667 O
   0.9020089999999999    0.2535110000000002    0.2062130833333333 O
   0.9020089999999999    0.2535110000000002    0.3728797499999999 O
   0.5288700000000001    0.4666590000000002    0.1022479166666667 O
   0.5288700000000001    0.4666590000000002    0.2689145833333333 O
   0.5288700000000001    0.4666590000000002    0.4355812500000000 O
   0.0372740000000000    0.6255510000000000    0.0516542500000002 O
   0.0372740000000000    0.6255510000000000    0.2183209166666669 O
   0.0372740000000000    0.6255510000000000    0.3849875833333335 O
   0.7350010000000000    0.9933010000000002    0.0330722500000002 O
   0.7350010000000000    0.9933010000000002    0.1997389166666668 O
   0.7350010000000000    0.9933010000000002    0.3664055833333333 O
   0.7777479999999998    0.7652890000000001    0.4649704166666667 O
   0.7777479999999998    0.7652890000000001    0.1316370833333333 O
   0.7777479999999998    0.7652890000000001    0.2983037499999999 O
   0.1128660000000000    0.3028190000000008    0.4887352500000001 O
   0.1128660000000000    0.3028190000000008    0.1554019166666668 O
   0.1128660000000000    0.3028190000000008    0.3220685833333334 O
   0.5646110000000001    0.9682820000000010    0.0948534166666667 O
   0.5646110000000001    0.9682820000000010    0.2615200833333333 O
   0.5646110000000001    0.9682820000000010    0.4281867499999999 O
   0.8562139999999991    0.5527519999999999    0.0958789166666668 O
   0.8562139999999991    0.5527519999999999    0.2625455833333334 O
   0.8562139999999991    0.5527519999999999    0.4292122500000002 O
   0.2876890000000000    0.7950530000000001    0.0960745833333334 O
   0.2876890000000000    0.7950530000000001    0.2627412500000001 O
   0.2876890000000000    0.7950530000000001    0.4294079166666667 O
   0.3119490000000000    0.7310080000000001    0.0206324166666668 O
   0.3119490000000000    0.7310080000000001    0.1872990833333336 O
   0.3119490000000000    0.7310080000000001    0.3539657500000002 O
   0.6368840000000000    0.4425230000000001    0.0224340833333335 O
   0.6368840000000000    0.4425230000000001    0.1891007500000002 O
   0.6368840000000000    0.4425230000000001    0.3557674166666668 O
   0.4617560000000002    0.0854470000000001    0.4484842500000002 O
   0.4617560000000002    0.0854470000000001    0.1151509166666669 O
   0.4617560000000002    0.0854470000000001    0.2818175833333335 O
   0.0542060000000000    0.0632090000000008    0.0902430833333334 O
   0.0542060000000000    0.0632090000000008    0.2569097500000001 O
   0.0542060000000000    0.0632090000000008    0.4235764166666667 O
   0.3509839999999990    0.8173380000000001    0.4656895833333333 O
   0.3509839999999990    0.8173380000000001    0.1323562500000001 O
   0.3509839999999990    0.8173380000000001    0.2990229166666667 O
   0.4720379999999992    0.9702880000000003    0.0470989166666667 O
   0.4720379999999992    0.9702880000000003    0.2137655833333333 O
   0.4720379999999992    0.9702880000000003    0.3804322500000000 O
   0.7638309999999990    0.7918760000000000    0.0857617500000002 O
   0.7638309999999990    0.7918760000000000    0.2524284166666669 O
   0.7638309999999990    0.7918760000000000    0.4190950833333335 O
   0.5759319999999999    0.1332180000000011    0.4861670833333334 O
   0.5759319999999999    0.1332180000000011    0.1528337500000000 O
   0.5759319999999999    0.1332180000000011    0.3195004166666666 O
   0.4226640000000000    0.2914620000000000    0.0584902500000000 O
   0.4226640000000000    0.2914620000000000    0.2251569166666667 O
   0.4226640000000000    0.2914620000000000    0.3918235833333333 O
   0.1914030000000000    0.9599750000000002    0.4701729166666668 O
   0.1914030000000000    0.9599750000000002    0.1368395833333335 O
   0.1914030000000000    0.9599750000000002    0.3035062500000001 O
   0.1594519999999990    0.5195680000000009    0.4904590833333332 O
   0.1594519999999990    0.5195680000000009    0.1571257499999999 O
   0.1594519999999990    0.5195680000000009    0.3237924166666665 O
   0.1384619999999999    0.1140920000000008    0.4755765833333332 O
   0.1384619999999999    0.1140920000000008    0.1422432499999999 O
   0.1384619999999999    0.1140920000000008    0.3089099166666666 O
   0.3836949999999998    0.2549929999999998    0.4554884166666667 O
   0.3836949999999998    0.2549929999999998    0.1221550833333334 O
   0.3836949999999998    0.2549929999999998    0.2888217500000000 O
   0.2678300000000000    0.5161840000000010    0.4514165833333333 O
   0.2678300000000000    0.5161840000000010    0.1180832499999999 O
   0.2678300000000000    0.5161840000000010    0.2847499166666667 O
   0.7179100000000000    0.0698520000000002    0.4674760833333335 O
   0.7179100000000000    0.0698520000000002    0.1341427500000001 O
   0.7179100000000000    0.0698520000000002    0.3008094166666668 O
   0.3878410000000001    0.4028710000000002    0.0017244166666668 O
   0.3878410000000001    0.4028710000000002    0.1683910833333335 O
   0.3878410000000001    0.4028710000000002    0.3350577500000002 O
   0.3703140000000000    0.9993610000000012    0.4982755833333332 O
   0.3703140000000000    0.9993610000000012    0.1649422499999998 O
   0.3703140000000000    0.9993610000000012    0.3316089166666666 O
   0.1724170000000000    0.2708770000000001    0.0368927500000000 O
   0.1724170000000000    0.2708770000000001    0.2035594166666667 O
   0.1724170000000000    0.2708770000000001    0.3702260833333333 O
   0.0296230000000000    0.0548199999999999    0.0395225833333335 O
   0.0296230000000000    0.0548199999999999    0.2061892500000001 O
   0.0296230000000000    0.0548199999999999    0.3728559166666667 O
   0.0428710000000000    0.8070050000000001    0.4534280833333335 O
   0.0428710000000000    0.8070050000000001    0.1200947500000002 O
   0.0428710000000000    0.8070050000000001    0.2867614166666668 O
   0.7001120000000000    0.1780890000000001    0.0811845833333334 O
   0.7001120000000000    0.1780890000000001    0.2478512500000000 O
   0.7001120000000000    0.1780890000000001    0.4145179166666667 O
   0.5427529999999994    0.6028380000000010    0.0368397500000000 O
   0.5427529999999994    0.6028380000000010    0.2035064166666666 O
   0.5427529999999994    0.6028380000000010    0.3701730833333333 O
   0.6677839999999992    0.7085150000000000    0.0625427500000002 O
   0.6677839999999992    0.7085150000000000    0.2292094166666668 O
   0.6677839999999992    0.7085150000000000    0.3958760833333335 O
   0.5019669999999992    0.2638999999999998    0.4956195833333336 O
   0.5019669999999992    0.2638999999999998    0.1622862500000002 O
   0.5019669999999992    0.2638999999999998    0.3289529166666668 O
   0.5481920000000000    0.8703910000000000    0.0245019166666668 O
   0.5481920000000000    0.8703910000000000    0.1911685833333335 O
   0.5481920000000000    0.8703910000000000    0.3578352500000002 O
   0.5340460000000001    0.6660159999999999    0.4819340833333334 O
   0.5340460000000001    0.6660159999999999    0.1486007500000000 O
   0.5340460000000001    0.6660159999999999    0.3152674166666667 O
   0.3606370000000000    0.5156370000000000    0.0279029166666668 O
   0.3606370000000000    0.5156370000000000    0.1945695833333336 O
   0.3606370000000000    0.5156370000000000    0.3612362500000001 O
   0.7773439999999990    0.3032550000000002    0.4904522500000001 O
   0.7773439999999990    0.3032550000000002    0.1571189166666668 O
   0.7773439999999990    0.3032550000000002    0.3237855833333335 O
   0.2641879999999999    0.1172580000000010    0.0133600833333334 O
   0.2641879999999999    0.1172580000000010    0.1800267500000000 O
   0.2641879999999999    0.1172580000000010    0.3466934166666666 O
   0.8271069999999990    0.3857580000000001    0.0569197500000002 O
   0.8271069999999990    0.3857580000000001    0.2235864166666668 O
   0.8271069999999990    0.3857580000000001    0.3902530833333336 O
   0.6517999999999999    0.5210360000000001    0.4698780833333335 O
   0.6517999999999999    0.5210360000000001    0.1365447500000001 O
   0.6517999999999999    0.5210360000000001    0.3032114166666669 O
   0.5605660000000001    0.8361070000000010    0.4914290833333331 O
   0.5605660000000001    0.8361070000000010    0.1580957499999999 O
   0.5605660000000001    0.8361070000000010    0.3247624166666666 O
