Ti90 O180
1.0
  10.7847349425586163    0.0000000000000000    0.0060328200944446
  -1.2247047225377732   10.4583487854001529    9.3482210382165096
   0.0000000000000000    0.0000000000000000   62.9170570674836966
Ti O
90 180
direct
   0.3479379999999991    0.8204740000000001    0.0681093333333332 Ti
   0.3479379999999991    0.8204740000000001    0.2347760000000000 Ti
   0.3479379999999991    0.8204740000000001    0.4014426666666666 Ti
   0.1008690000000000    0.1441720000000008    0.0377749999999998 Ti
   0.1008690000000000    0.1441720000000008    0.2044416666666664 Ti
   0.1008690000000000    0.1441720000000008    0.3711083333333330 Ti
   0.8065249999999994    0.4774350000000001    0.0015918333333333 Ti
   0.8065249999999994    0.4774350000000001    0.1682584999999999 Ti
   0.8065249999999994    0.4774350000000001    0.3349251666666666 Ti
   0.7909490000000001    0.2465539999999999    0.1327836666666666 Ti
   0.7909490000000001    0.2465539999999999    0.2994503333333334 Ti
   0.7909490000000001    0.2465539999999999    0.4661170000000000 Ti
   0.4398120000000000    0.7044890000000010    0.0354814999999998 Ti
   0.4398120000000000    0.7044890000000010    0.2021481666666664 Ti
   0.4398120000000000    0.7044890000000010    0.3688148333333330 Ti
   0.1631409999999990    0.5778510000000001    0.0784880000000000 Ti
   0.1631409999999990    0.5778510000000001    0.2451546666666666 Ti
   0.1631409999999990    0.5778510000000001    0.4118213333333332 Ti
   0.5602509999999991    0.0046750000000008    0.0171261666666665 Ti
   0.5602509999999991    0.0046750000000008    0.1837928333333332 Ti
   0.5602509999999991    0.0046750000000008    0.3504594999999999 Ti
   0.5211030000000000    0.4422479999999999    0.0804495000000000 Ti
   0.5211030000000000    0.4422479999999999    0.2471161666666667 Ti
   0.5211030000000000    0.4422479999999999    0.4137828333333333 Ti
   0.5445340000000000    0.3619320000000000    0.0407439999999998 Ti
   0.5445340000000000    0.3619320000000000    0.2074106666666664 Ti
   0.5445340000000000    0.3619320000000000    0.3740773333333330 Ti
   0.3685410000000002    0.5153020000000010    0.1306304999999996 Ti
   0.3685410000000002    0.5153020000000010    0.2972971666666662 Ti
   0.3685410000000002    0.5153020000000010    0.4639638333333330 Ti
   0.0395639999999990    0.6267690000000000    0.0076893333333333 Ti
   0.0395639999999990    0.6267690000000000    0.1743559999999999 Ti
   0.0395639999999990    0.6267690000000000    0.3410226666666665 Ti
   0.4267149999999991    0.1029350000000001    0.0469029999999999 Ti
   0.4267149999999991    0.1029350000000001    0.2135696666666665 Ti
   0.4267149999999991    0.1029350000000001    0.3802363333333332 Ti
   0.4301250000000000    0.9143660000000000    0.1217988333333332 Ti
   0.4301250000000000    0.9143660000000000    0.2884654999999998 Ti
   0.4301250000000000    0.9143660000000000    0.4551321666666664 Ti
   0.8723019999999996    0.9280300000000002    0.0919901666666666 Ti
   0.8723019999999996    0.9280300000000002    0.2586568333333332 Ti
   0.8723019999999996    0.9280300000000002    0.4253234999999998 Ti
   0.1865880000000000    0.8336970000000010    0.0062373333333329 Ti
   0.1865880000000000    0.8336970000000010    0.1729039999999996 Ti
   0.1865880000000000    0.8336970000000010    0.3395706666666663 Ti
   0.6539610000000002    0.6951250000000000    0.4932901666666665 Ti
   0.6539610000000002    0.6951250000000000    0.1599568333333332 Ti
   0.6539610000000002    0.6951250000000000    0.3266234999999998 Ti
   0.3001759999999999    0.1249779999999997    0.4959296666666667 Ti
   0.3001759999999999    0.1249779999999997    0.1625963333333334 Ti
   0.3001759999999999    0.1249779999999997    0.3292630000000000 Ti
   0.2299519999999999    0.7013280000000000    0.1250138333333333 Ti
   0.2299519999999999    0.7013280000000000    0.2916805000000000 Ti
   0.2299519999999999    0.7013280000000000    0.4583471666666666 Ti
   0.2223479999999999    0.3955090000000000    0.0306773333333333 Ti
   0.2223479999999999    0.3955090000000000    0.1973439999999999 Ti
   0.2223479999999999    0.3955090000000000    0.3640106666666666 Ti
   0.5601389999999993    0.3160910000000000    0.4835068333333333 Ti
   0.5601389999999993    0.3160910000000000    0.1501735000000000 Ti
   0.5601389999999993    0.3160910000000000    0.3168401666666666 Ti
   0.0458439999999990    0.0765540000000000    0.4891718333333333 Ti
   0.0458439999999990    0.0765540000000000    0.1558385000000000 Ti
   0.0458439999999990    0.0765540000000000    0.3225051666666666 Ti
   0.7670669999999988    0.1698310000000008    0.0267378333333332 Ti
   0.7670669999999988    0.1698310000000008    0.1934044999999998 Ti
   0.7670669999999988    0.1698310000000008    0.3600711666666665 Ti
   0.0141669999999990    0.1413960000000010    0.0904374999999998 Ti
   0.0141669999999990    0.1413960000000010    0.2571041666666665 Ti
   0.0141669999999990    0.1413960000000010    0.4237708333333331 Ti
   0.9002000000000000    0.6815009999999999    0.0929031666666666 Ti
   0.9002000000000000    0.6815009999999999    0.2595698333333334 Ti
   0.9002000000000000    0.6815009999999999    0.4262365000000000 Ti
   0.9040300000000002    0.8948880000000002    0.4847871666666665 Ti
   0.9040300000000002    0.8948880000000002    0.1514538333333332 Ti
   0.9040300000000002    0.8948880000000002    0.3181204999999999 Ti
   0.2487680000000000    0.3399710000000001    0.0886483333333333 Ti
   0.2487680000000000    0.3399710000000001    0.2553149999999998 Ti
   0.2487680000000000    0.3399710000000001    0.4219816666666665 Ti
   0.6409000000000002    0.7353340000000003    0.0655920000000000 Ti
   0.6409000000000002    0.7353340000000003    0.2322586666666665 Ti
   0.6409000000000002    0.7353340000000003    0.3989253333333332 Ti
   0.6138279999999990    0.8367120000000000    0.0959029999999999 Ti
   0.6138279999999990    0.8367120000000000    0.2625696666666666 Ti
   0.6138279999999990    0.8367120000000000    0.4292363333333333 Ti
   0.5144870000000001    0.1248010000000002    0.1149466666666666 Ti
   0.5144870000000001    0.1248010000000002    0.2816133333333332 Ti
   0.5144870000000001    0.1248010000000002    0.4482799999999999 Ti
   0.7612200000000001    0.3121970000000009    0.0803591666666663 Ti
   0.7612200000000001    0.3121970000000009    0.2470258333333330 Ti
   0.7612200000000001    0.3121970000000009    0.4136924999999997 Ti
   0.8739560000000002    0.9910120000000001    0.1130383333333333 O
   0.8739560000000002    0.9910120000000001    0.2797049999999999 O
   0.8739560000000002    0.9910120000000001    0.4463716666666666 O
   0.8036150000000000    0.7133380000000001    0.0646296666666664 O
   0.8036150000000000    0.7133380000000001    0.2312963333333331 O
   0.8036150000000000    0.7133380000000001    0.3979629999999996 O
   0.9485159999999990    0.2054380000000000    0.1396740000000000 O
   0.9485159999999990    0.2054380000000000    0.3063406666666665 O
   0.9485159999999990    0.2054380000000000    0.4730073333333333 O
   0.2662120000000000    0.5014220000000009    0.1105733333333331 O
   0.2662120000000000    0.5014220000000009    0.2772399999999998 O
   0.2662120000000000    0.5014220000000009    0.4439066666666664 O
   0.8931300000000003    0.5236930000000000    0.0196195000000000 O
   0.8931300000000003    0.5236930000000000    0.1862861666666666 O
   0.8931300000000003    0.5236930000000000    0.3529528333333333 O
   0.3974479999999990    0.6925810000000001    0.1070601666666666 O
   0.3974479999999990    0.6925810000000001    0.2737268333333334 O
   0.3974479999999990    0.6925810000000001    0.4403934999999999 O
   0.2208709999999990    0.2082220000000000    0.1284185000000000 O
   0.2208709999999990    0.2082220000000000    0.2950851666666666 O
   0.2208709999999990    0.2082220000000000    0.4617518333333334 O
   0.5392760000000002    0.7732650000000000    0.1313464999999998 O
   0.5392760000000002    0.7732650000000000    0.2980131666666664 O
   0.5392760000000002    0.7732650000000000    0.4646798333333332 O
   0.5830440000000002    0.3545419999999999    0.1167335000000000 O
   0.5830440000000002    0.3545419999999999    0.2834001666666666 O
   0.5830440000000002    0.3545419999999999    0.4500668333333331 O
   0.1244670000000000    0.4280370000000000    0.0866583333333331 O
   0.1244670000000000    0.4280370000000000    0.2533249999999997 O
   0.1244670000000000    0.4280370000000000    0.4199916666666663 O
   0.0680549999999990    0.6614070000000000    0.4750073333333333 O
   0.0680549999999990    0.6614070000000000    0.1416739999999999 O
   0.0680549999999990    0.6614070000000000    0.3083406666666665 O
   0.2100409999999990    0.8127910000000002    0.0860419999999999 O
   0.2100409999999990    0.8127910000000002    0.2527086666666666 O
   0.2100409999999990    0.8127910000000002    0.4193753333333332 O
   0.6015980000000001    0.2259720000000008    0.0762696666666665 O
   0.6015980000000001    0.2259720000000008    0.2429363333333332 O
   0.6015980000000001    0.2259720000000008    0.4096029999999998 O
   0.9369569999999992    0.8329630000000001    0.0846623333333331 O
   0.9369569999999992    0.8329630000000001    0.2513289999999997 O
   0.9369569999999992    0.8329630000000001    0.4179956666666664 O
   0.7478680000000001    0.3017190000000008    0.4857318333333332 O
   0.7478680000000001    0.3017190000000008    0.1523984999999999 O
   0.7478680000000001    0.3017190000000008    0.3190651666666665 O
   0.1286800000000000    0.6762770000000001    0.0385923333333333 O
   0.1286800000000000    0.6762770000000001    0.2052590000000000 O
   0.1286800000000000    0.6762770000000001    0.3719256666666666 O
   0.3732089999999991    0.0628869999999998    0.1077433333333332 O
   0.3732089999999991    0.0628869999999998    0.2744099999999998 O
   0.3732089999999991    0.0628869999999998    0.4410766666666665 O
   0.9236479999999990    0.9405430000000010    0.0064643333333332 O
   0.9236479999999990    0.9405430000000010    0.1731309999999999 O
   0.9236479999999990    0.9405430000000010    0.3397976666666665 O
   0.9223730000000000    0.1389929999999998    0.0289085000000000 O
   0.9223730000000000    0.1389929999999998    0.1955751666666667 O
   0.9223730000000000    0.1389929999999998    0.3622418333333333 O
   0.9020089999999999    0.2535110000000002    0.0761406666666665 O
   0.9020089999999999    0.2535110000000002    0.2428073333333331 O
   0.9020089999999999    0.2535110000000002    0.4094739999999997 O
   0.5288700000000001    0.4666590000000002    0.1388421666666665 O
   0.5288700000000001    0.4666590000000002    0.3055088333333331 O
   0.5288700000000001    0.4666590000000002    0.4721754999999997 O
   0.0372740000000000    0.6255510000000000    0.0882485000000000 O
   0.0372740000000000    0.6255510000000000    0.2549151666666667 O
   0.0372740000000000    0.6255510000000000    0.4215818333333333 O
   0.7350010000000000    0.9933010000000002    0.0696665000000000 O
   0.7350010000000000    0.9933010000000002    0.2363331666666666 O
   0.7350010000000000    0.9933010000000002    0.4029998333333331 O
   0.7777479999999998    0.7652890000000001    0.0015646666666665 O
   0.7777479999999998    0.7652890000000001    0.1682313333333331 O
   0.7777479999999998    0.7652890000000001    0.3348979999999997 O
   0.1128660000000000    0.3028190000000008    0.0253294999999999 O
   0.1128660000000000    0.3028190000000008    0.1919961666666666 O
   0.1128660000000000    0.3028190000000008    0.3586628333333332 O
   0.5646110000000001    0.9682820000000010    0.1314476666666665 O
   0.5646110000000001    0.9682820000000010    0.2981143333333330 O
   0.5646110000000001    0.9682820000000010    0.4647809999999997 O
   0.8562139999999991    0.5527519999999999    0.1324731666666666 O
   0.8562139999999991    0.5527519999999999    0.2991398333333332 O
   0.8562139999999991    0.5527519999999999    0.4658065000000000 O
   0.2876890000000000    0.7950530000000001    0.1326688333333332 O
   0.2876890000000000    0.7950530000000001    0.2993354999999999 O
   0.2876890000000000    0.7950530000000001    0.4660021666666665 O
   0.3119490000000000    0.7310080000000001    0.0572266666666666 O
   0.3119490000000000    0.7310080000000001    0.2238933333333334 O
   0.3119490000000000    0.7310080000000001    0.3905600000000000 O
   0.6368840000000000    0.4425230000000001    0.0590283333333333 O
   0.6368840000000000    0.4425230000000001    0.2256950000000000 O
   0.6368840000000000    0.4425230000000001    0.3923616666666666 O
   0.4617560000000002    0.0854470000000001    0.4850785000000000 O
   0.4617560000000002    0.0854470000000001    0.1517451666666667 O
   0.4617560000000002    0.0854470000000001    0.3184118333333333 O
   0.0542060000000000    0.0632090000000008    0.1268373333333332 O
   0.0542060000000000    0.0632090000000008    0.2935039999999999 O
   0.0542060000000000    0.0632090000000008    0.4601706666666665 O
   0.3509839999999990    0.8173380000000001    0.0022838333333331 O
   0.3509839999999990    0.8173380000000001    0.1689504999999999 O
   0.3509839999999990    0.8173380000000001    0.3356171666666665 O
   0.4720379999999992    0.9702880000000003    0.0836931666666665 O
   0.4720379999999992    0.9702880000000003    0.2503598333333331 O
   0.4720379999999992    0.9702880000000003    0.4170264999999997 O
   0.7638309999999990    0.7918760000000000    0.1223560000000000 O
   0.7638309999999990    0.7918760000000000    0.2890226666666666 O
   0.7638309999999990    0.7918760000000000    0.4556893333333333 O
   0.5759319999999999    0.1332180000000011    0.0227613333333331 O
   0.5759319999999999    0.1332180000000011    0.1894279999999998 O
   0.5759319999999999    0.1332180000000011    0.3560946666666663 O
   0.4226640000000000    0.2914620000000000    0.0950844999999998 O
   0.4226640000000000    0.2914620000000000    0.2617511666666665 O
   0.4226640000000000    0.2914620000000000    0.4284178333333331 O
   0.1914030000000000    0.9599750000000002    0.0067671666666666 O
   0.1914030000000000    0.9599750000000002    0.1734338333333333 O
   0.1914030000000000    0.9599750000000002    0.3401004999999999 O
   0.1594519999999990    0.5195680000000009    0.0270533333333330 O
   0.1594519999999990    0.5195680000000009    0.1937199999999997 O
   0.1594519999999990    0.5195680000000009    0.3603866666666663 O
   0.1384619999999999    0.1140920000000008    0.0121708333333330 O
   0.1384619999999999    0.1140920000000008    0.1788374999999997 O
   0.1384619999999999    0.1140920000000008    0.3455041666666663 O
   0.3836949999999998    0.2549929999999998    0.4920826666666665 O
   0.3836949999999998    0.2549929999999998    0.1587493333333332 O
   0.3836949999999998    0.2549929999999998    0.3254159999999998 O
   0.2678300000000000    0.5161840000000010    0.4880108333333331 O
   0.2678300000000000    0.5161840000000010    0.1546774999999997 O
   0.2678300000000000    0.5161840000000010    0.3213441666666664 O
   0.7179100000000000    0.0698520000000002    0.0040703333333333 O
   0.7179100000000000    0.0698520000000002    0.1707369999999999 O
   0.7179100000000000    0.0698520000000002    0.3374036666666666 O
   0.3878410000000001    0.4028710000000002    0.0383186666666666 O
   0.3878410000000001    0.4028710000000002    0.2049853333333333 O
   0.3878410000000001    0.4028710000000002    0.3716520000000000 O
   0.3703140000000000    0.9993610000000012    0.0348698333333330 O
   0.3703140000000000    0.9993610000000012    0.2015364999999996 O
   0.3703140000000000    0.9993610000000012    0.3682031666666664 O
   0.1724170000000000    0.2708770000000001    0.0734869999999998 O
   0.1724170000000000    0.2708770000000001    0.2401536666666665 O
   0.1724170000000000    0.2708770000000001    0.4068203333333331 O
   0.0296230000000000    0.0548199999999999    0.0761168333333333 O
   0.0296230000000000    0.0548199999999999    0.2427834999999999 O
   0.0296230000000000    0.0548199999999999    0.4094501666666665 O
   0.0428710000000000    0.8070050000000001    0.4900223333333333 O
   0.0428710000000000    0.8070050000000001    0.1566890000000000 O
   0.0428710000000000    0.8070050000000001    0.3233556666666666 O
   0.7001120000000000    0.1780890000000001    0.1177788333333332 O
   0.7001120000000000    0.1780890000000001    0.2844454999999997 O
   0.7001120000000000    0.1780890000000001    0.4511121666666665 O
   0.5427529999999994    0.6028380000000010    0.0734339999999997 O
   0.5427529999999994    0.6028380000000010    0.2401006666666664 O
   0.5427529999999994    0.6028380000000010    0.4067673333333331 O
   0.6677839999999992    0.7085150000000000    0.0991370000000000 O
   0.6677839999999992    0.7085150000000000    0.2658036666666666 O
   0.6677839999999992    0.7085150000000000    0.4324703333333332 O
   0.5019669999999992    0.2638999999999998    0.0322138333333333 O
   0.5019669999999992    0.2638999999999998    0.1988805000000000 O
   0.5019669999999992    0.2638999999999998    0.3655471666666666 O
   0.5481920000000000    0.8703910000000000    0.0610961666666666 O
   0.5481920000000000    0.8703910000000000    0.2277628333333333 O
   0.5481920000000000    0.8703910000000000    0.3944295000000000 O
   0.5340460000000001    0.6660159999999999    0.0185283333333332 O
   0.5340460000000001    0.6660159999999999    0.1851949999999998 O
   0.5340460000000001    0.6660159999999999    0.3518616666666665 O
   0.3606370000000000    0.5156370000000000    0.0644971666666666 O
   0.3606370000000000    0.5156370000000000    0.2311638333333334 O
   0.3606370000000000    0.5156370000000000    0.3978304999999999 O
   0.7773439999999990    0.3032550000000002    0.0270464999999999 O
   0.7773439999999990    0.3032550000000002    0.1937131666666666 O
   0.7773439999999990    0.3032550000000002    0.3603798333333333 O
   0.2641879999999999    0.1172580000000010    0.0499543333333331 O
   0.2641879999999999    0.1172580000000010    0.2166209999999998 O
   0.2641879999999999    0.1172580000000010    0.3832876666666664 O
   0.8271069999999990    0.3857580000000001    0.0935140000000000 O
   0.8271069999999990    0.3857580000000001    0.2601806666666666 O
   0.8271069999999990    0.3857580000000001    0.4268473333333334 O
   0.6517999999999999    0.5210360000000001    0.0064723333333333 O
   0.6517999999999999    0.5210360000000001    0.1731389999999999 O
   0.6517999999999999    0.5210360000000001    0.3398056666666667 O
   0.5605660000000001    0.8361070000000010    0.0280233333333329 O
   0.5605660000000001    0.8361070000000010    0.1946899999999997 O
   0.5605660000000001    0.8361070000000010    0.3613566666666663 O
