
#(C) 2023 by FIZ Karlsruhe - Leibniz Institute for Information Infrastructure.  All rights reserved.
data_166363-ICSD
_database_code_ICSD 166363
_audit_creation_date 2010-08-01
_chemical_name_common 'Molybdenum oxide'
_chemical_formula_structural 'Mo O3'
_chemical_formula_sum 'Mo1 O3'
_chemical_name_structure_type MoO3
_chemical_name_mineral Molybdite
_exptl_crystal_density_diffrn 4.71
_diffrn_ambient_temperature 293.
_citation_title

;
Texture and structural refinement using neutron diffraction data from
molybdite (Mo O3) and calcite (Ca C O3) powders and a Ni-rich Ni50.7 Ti49.30
alloy
;
loop_
_citation_id
_citation_journal_full
_citation_year
_citation_journal_volume
_citation_page_first
_citation_page_last
_citation_journal_id_ASTM
primary 'Powder Diffraction' 2009 24 315 326 PODIE2
loop_
_citation_author_citation_id
_citation_author_name
primary 'Sitepu, H.'
_cell_length_a 3.9624(1)
_cell_length_b 13.860(2)
_cell_length_c 3.6971(4)
_cell_angle_alpha 90.
_cell_angle_beta 90.
_cell_angle_gamma 90.
_cell_volume 203.04
_cell_formula_units_Z 4
_space_group_name_H-M_alt 'P b n m'
_space_group_IT_number 62
loop_
_space_group_symop_id
_space_group_symop_operation_xyz
1 '-x+1/2, y+1/2, z'
2 'x, y, -z+1/2'
3 'x+1/2, -y+1/2, z+1/2'
4 '-x, -y, -z'
5 'x+1/2, -y+1/2, -z'
6 '-x, -y, z+1/2'
7 '-x+1/2, y+1/2, -z+1/2'
8 'x, y, z'
loop_
_atom_type_symbol
_atom_type_oxidation_number
Mo6+ 6
O2- -2
loop_
_atom_site_label
_atom_site_type_symbol
_atom_site_symmetry_multiplicity
_atom_site_Wyckoff_symbol
_atom_site_fract_x
_atom_site_fract_y
_atom_site_fract_z
_atom_site_U_iso_or_equiv
_atom_site_occupancy
Mo1 Mo6+ 4 c 0.08490(7) 0.10126(8) 0.25 0.007(2) 1.
O1 O2- 4 c 0.0350(3) 0.22139(9) 0.25 0.013(3) 1.
O2 O2- 4 c 0.5209(2) 0.08828(9) 0.25 0.010(2) 1.
O3 O2- 4 c 0.5016(2) 0.4363(1) 0.25 0.007(2) 1.
#End of TTdata_166363-ICSD