Mo24 C12
1.0
   5.2097570200000041    0.0000000000000000   -4.7285430999999960
   0.0000000000000037    6.0526024900000008   -4.7285430999999987
   0.0000000000000000    0.0000000000000000   42.5568878999999924
Mo C
24 12
direct
   0.0795088700000000    0.1220236400000000    0.0041423166666667 Mo
   0.0795088700000000    0.1220236400000000    0.1152534277777778 Mo
   0.0795088700000000    0.1220236400000000    0.2263645388888890 Mo
   0.9204911300000000    0.3779763600000000    0.2926906477777778 Mo
   0.9204911300000000    0.3779763600000000    0.0704684255555556 Mo
   0.9204911300000000    0.3779763600000000    0.1815795366666667 Mo
   0.5795088700000001    0.3779763600000000    0.3113485100000000 Mo
   0.5795088700000001    0.3779763600000000    0.0891262877777778 Mo
   0.5795088700000001    0.3779763600000000    0.2002373988888889 Mo
   0.4204911299999999    0.1220236400000000    0.3207962366666667 Mo
   0.4204911299999999    0.1220236400000000    0.0985740144444445 Mo
   0.4204911299999999    0.1220236400000000    0.2096851255555556 Mo
   0.5795088700000000    0.8779763599999998    0.0325815077777778 Mo
   0.5795088700000000    0.8779763599999998    0.1436926188888890 Mo
   0.5795088700000000    0.8779763599999998    0.2548037300000001 Mo
   0.4204911299999999    0.6220236399999998    0.0420292344444445 Mo
   0.4204911299999999    0.6220236399999998    0.1531403455555556 Mo
   0.4204911299999999    0.6220236399999998    0.2642514566666668 Mo
   0.0795088700000000    0.6220236399999998    0.0606870966666667 Mo
   0.0795088700000000    0.6220236399999998    0.1717982077777779 Mo
   0.0795088700000000    0.6220236399999998    0.2829093188888890 Mo
   0.9204911299999999    0.8779763599999998    0.0159020944444445 Mo
   0.9204911299999999    0.8779763599999998    0.1270132055555556 Mo
   0.9204911299999999    0.8779763599999998    0.2381243166666668 Mo
   0.7500000000000000    0.1225193000000000    0.3291910166666667 C
   0.7500000000000000    0.1225193000000000    0.1069687944444445 C
   0.7500000000000000    0.1225193000000000    0.2180799055555556 C
   0.2500000000000000    0.3774806999999999    0.0241867277777778 C
   0.2500000000000000    0.3774806999999999    0.1352978388888889 C
   0.2500000000000000    0.3774806999999999    0.2464089500000001 C
   0.2500000000000000    0.8774807000000000    0.0241867277777778 C
   0.2500000000000000    0.8774807000000000    0.1352978388888889 C
   0.2500000000000000    0.8774807000000000    0.2464089500000001 C
   0.7500000000000000    0.6225193000000000    0.3291910166666667 C
   0.7500000000000000    0.6225193000000000    0.1069687944444444 C
   0.7500000000000000    0.6225193000000000    0.2180799055555556 C
