Mo24 C12
1.0
   5.2097570200000041    0.0000000000000000   -4.7285430999999960
   0.0000000000000037    6.0526024900000008   -4.7285430999999987
   0.0000000000000000    0.0000000000000000   42.5568878999999924
Mo C
24 12
direct
   0.0795088700000000    0.1220236400000000    0.3274534444444444 Mo
   0.0795088700000000    0.1220236400000000    0.1052312222222222 Mo
   0.0795088700000000    0.1220236400000000    0.2163423333333334 Mo
   0.9204911300000000    0.3779763600000000    0.2826684422222222 Mo
   0.9204911300000000    0.3779763600000000    0.0604462200000000 Mo
   0.9204911300000000    0.3779763600000000    0.1715573311111112 Mo
   0.5795088700000001    0.3779763600000000    0.3013263044444445 Mo
   0.5795088700000001    0.3779763600000000    0.0791040822222222 Mo
   0.5795088700000001    0.3779763600000000    0.1902151933333334 Mo
   0.4204911299999999    0.1220236400000000    0.3107740311111111 Mo
   0.4204911299999999    0.1220236400000000    0.0885518088888889 Mo
   0.4204911299999999    0.1220236400000000    0.1996629200000000 Mo
   0.5795088700000000    0.8779763599999998    0.0225593022222222 Mo
   0.5795088700000000    0.8779763599999998    0.1336704133333334 Mo
   0.5795088700000000    0.8779763599999998    0.2447815244444445 Mo
   0.4204911299999999    0.6220236399999998    0.0320070288888889 Mo
   0.4204911299999999    0.6220236399999998    0.1431181400000000 Mo
   0.4204911299999999    0.6220236399999998    0.2542292511111112 Mo
   0.0795088700000000    0.6220236399999998    0.0506648911111111 Mo
   0.0795088700000000    0.6220236399999998    0.1617760022222222 Mo
   0.0795088700000000    0.6220236399999998    0.2728871133333334 Mo
   0.9204911299999999    0.8779763599999998    0.0058798888888889 Mo
   0.9204911299999999    0.8779763599999998    0.1169910000000001 Mo
   0.9204911299999999    0.8779763599999998    0.2281021111111112 Mo
   0.7500000000000000    0.1225193000000000    0.3191688111111111 C
   0.7500000000000000    0.1225193000000000    0.0969465888888889 C
   0.7500000000000000    0.1225193000000000    0.2080577000000000 C
   0.2500000000000000    0.3774806999999999    0.0141645222222222 C
   0.2500000000000000    0.3774806999999999    0.1252756333333334 C
   0.2500000000000000    0.3774806999999999    0.2363867444444445 C
   0.2500000000000000    0.8774807000000000    0.0141645222222222 C
   0.2500000000000000    0.8774807000000000    0.1252756333333334 C
   0.2500000000000000    0.8774807000000000    0.2363867444444445 C
   0.7500000000000000    0.6225193000000000    0.3191688111111111 C
   0.7500000000000000    0.6225193000000000    0.0969465888888889 C
   0.7500000000000000    0.6225193000000000    0.2080577000000000 C
