Mo24 C12
1.0
   5.2097570200000041    0.0000000000000000   -4.7285430999999960
   0.0000000000000037    6.0526024900000008   -4.7285430999999987
   0.0000000000000000    0.0000000000000000   42.5568878999999924
Mo C
24 12
direct
   0.0795088700000000    0.1220236400000000    0.0124820233333333 Mo
   0.0795088700000000    0.1220236400000000    0.1235931344444445 Mo
   0.0795088700000000    0.1220236400000000    0.2347042455555556 Mo
   0.9204911300000000    0.3779763600000000    0.3010303544444444 Mo
   0.9204911300000000    0.3779763600000000    0.0788081322222222 Mo
   0.9204911300000000    0.3779763600000000    0.1899192433333334 Mo
   0.5795088700000001    0.3779763600000000    0.3196882166666667 Mo
   0.5795088700000001    0.3779763600000000    0.0974659944444445 Mo
   0.5795088700000001    0.3779763600000000    0.2085771055555556 Mo
   0.4204911299999999    0.1220236400000000    0.3291359433333333 Mo
   0.4204911299999999    0.1220236400000000    0.1069137211111111 Mo
   0.4204911299999999    0.1220236400000000    0.2180248322222223 Mo
   0.5795088700000000    0.8779763599999998    0.0409212144444445 Mo
   0.5795088700000000    0.8779763599999998    0.1520323255555556 Mo
   0.5795088700000000    0.8779763599999998    0.2631434366666667 Mo
   0.4204911299999999    0.6220236399999998    0.0503689411111112 Mo
   0.4204911299999999    0.6220236399999998    0.1614800522222223 Mo
   0.4204911299999999    0.6220236399999998    0.2725911633333334 Mo
   0.0795088700000000    0.6220236399999998    0.0690268033333334 Mo
   0.0795088700000000    0.6220236399999998    0.1801379144444445 Mo
   0.0795088700000000    0.6220236399999998    0.2912490255555556 Mo
   0.9204911299999999    0.8779763599999998    0.0242418011111112 Mo
   0.9204911299999999    0.8779763599999998    0.1353529122222223 Mo
   0.9204911299999999    0.8779763599999998    0.2464640233333334 Mo
   0.7500000000000000    0.1225193000000000    0.0041973900000000 C
   0.7500000000000000    0.1225193000000000    0.1153085011111111 C
   0.7500000000000000    0.1225193000000000    0.2264196122222223 C
   0.2500000000000000    0.3774806999999999    0.0325264344444445 C
   0.2500000000000000    0.3774806999999999    0.1436375455555556 C
   0.2500000000000000    0.3774806999999999    0.2547486566666667 C
   0.2500000000000000    0.8774807000000000    0.0325264344444445 C
   0.2500000000000000    0.8774807000000000    0.1436375455555556 C
   0.2500000000000000    0.8774807000000000    0.2547486566666667 C
   0.7500000000000000    0.6225193000000000    0.0041973900000000 C
   0.7500000000000000    0.6225193000000000    0.1153085011111111 C
   0.7500000000000000    0.6225193000000000    0.2264196122222222 C
