Mo24 C12
1.0
   5.2097570200000041    0.0000000000000000   -4.7285430999999960
   0.0000000000000037    6.0526024900000008   -4.7285430999999987
   0.0000000000000000    0.0000000000000000   42.5568878999999924
Mo C
24 12
direct
   0.0795088700000000    0.1220236400000000    0.0214032766666667 Mo
   0.0795088700000000    0.1220236400000000    0.1325143877777778 Mo
   0.0795088700000000    0.1220236400000000    0.2436254988888890 Mo
   0.9204911300000000    0.3779763600000000    0.3099516077777778 Mo
   0.9204911300000000    0.3779763600000000    0.0877293855555556 Mo
   0.9204911300000000    0.3779763600000000    0.1988404966666667 Mo
   0.5795088700000001    0.3779763600000000    0.3286094700000000 Mo
   0.5795088700000001    0.3779763600000000    0.1063872477777778 Mo
   0.5795088700000001    0.3779763600000000    0.2174983588888889 Mo
   0.4204911299999999    0.1220236400000000    0.0047238633333333 Mo
   0.4204911299999999    0.1220236400000000    0.1158349744444445 Mo
   0.4204911299999999    0.1220236400000000    0.2269460855555556 Mo
   0.5795088700000000    0.8779763599999998    0.0498424677777778 Mo
   0.5795088700000000    0.8779763599999998    0.1609535788888889 Mo
   0.5795088700000000    0.8779763599999998    0.2720646900000001 Mo
   0.4204911299999999    0.6220236399999998    0.0592901944444445 Mo
   0.4204911299999999    0.6220236399999998    0.1704013055555556 Mo
   0.4204911299999999    0.6220236399999998    0.2815124166666668 Mo
   0.0795088700000000    0.6220236399999998    0.0779480566666667 Mo
   0.0795088700000000    0.6220236399999998    0.1890591677777778 Mo
   0.0795088700000000    0.6220236399999998    0.3001702788888890 Mo
   0.9204911299999999    0.8779763599999998    0.0331630544444445 Mo
   0.9204911299999999    0.8779763599999998    0.1442741655555556 Mo
   0.9204911299999999    0.8779763599999998    0.2553852766666668 Mo
   0.7500000000000000    0.1225193000000000    0.0131186433333333 C
   0.7500000000000000    0.1225193000000000    0.1242297544444445 C
   0.7500000000000000    0.1225193000000000    0.2353408655555556 C
   0.2500000000000000    0.3774806999999999    0.0414476877777778 C
   0.2500000000000000    0.3774806999999999    0.1525587988888889 C
   0.2500000000000000    0.3774806999999999    0.2636699100000001 C
   0.2500000000000000    0.8774807000000000    0.0414476877777778 C
   0.2500000000000000    0.8774807000000000    0.1525587988888889 C
   0.2500000000000000    0.8774807000000000    0.2636699100000001 C
   0.7500000000000000    0.6225193000000000    0.0131186433333333 C
   0.7500000000000000    0.6225193000000000    0.1242297544444444 C
   0.7500000000000000    0.6225193000000000    0.2353408655555556 C
