Mo24 C12
1.0
   5.2097570200000041    0.0000000000000000   -4.7285430999999960
   0.0000000000000037    6.0526024900000008   -4.7285430999999987
   0.0000000000000000    0.0000000000000000   42.5568878999999924
Mo C
24 12
direct
   0.0795088700000000    0.1220236400000000    0.0354560711111111 Mo
   0.0795088700000000    0.1220236400000000    0.1465671822222222 Mo
   0.0795088700000000    0.1220236400000000    0.2576782933333334 Mo
   0.9204911300000000    0.3779763600000000    0.3240044022222222 Mo
   0.9204911300000000    0.3779763600000000    0.1017821800000000 Mo
   0.9204911300000000    0.3779763600000000    0.2128932911111112 Mo
   0.5795088700000001    0.3779763600000000    0.0093289311111111 Mo
   0.5795088700000001    0.3779763600000000    0.1204400422222222 Mo
   0.5795088700000001    0.3779763600000000    0.2315511533333334 Mo
   0.4204911299999999    0.1220236400000000    0.0187766577777778 Mo
   0.4204911299999999    0.1220236400000000    0.1298877688888889 Mo
   0.4204911299999999    0.1220236400000000    0.2409988800000001 Mo
   0.5795088700000000    0.8779763599999998    0.0638952622222222 Mo
   0.5795088700000000    0.8779763599999998    0.1750063733333334 Mo
   0.5795088700000000    0.8779763599999998    0.2861174844444445 Mo
   0.4204911299999999    0.6220236399999998    0.0733429888888889 Mo
   0.4204911299999999    0.6220236399999998    0.1844541000000001 Mo
   0.4204911299999999    0.6220236399999998    0.2955652111111112 Mo
   0.0795088700000000    0.6220236399999998    0.0920008511111111 Mo
   0.0795088700000000    0.6220236399999998    0.2031119622222223 Mo
   0.0795088700000000    0.6220236399999998    0.3142230733333334 Mo
   0.9204911299999999    0.8779763599999998    0.0472158488888889 Mo
   0.9204911299999999    0.8779763599999998    0.1583269600000001 Mo
   0.9204911299999999    0.8779763599999998    0.2694380711111112 Mo
   0.7500000000000000    0.1225193000000000    0.0271714377777778 C
   0.7500000000000000    0.1225193000000000    0.1382825488888889 C
   0.7500000000000000    0.1225193000000000    0.2493936600000001 C
   0.2500000000000000    0.3774806999999999    0.0555004822222222 C
   0.2500000000000000    0.3774806999999999    0.1666115933333334 C
   0.2500000000000000    0.3774806999999999    0.2777227044444445 C
   0.2500000000000000    0.8774807000000000    0.0555004822222222 C
   0.2500000000000000    0.8774807000000000    0.1666115933333334 C
   0.2500000000000000    0.8774807000000000    0.2777227044444445 C
   0.7500000000000000    0.6225193000000000    0.0271714377777778 C
   0.7500000000000000    0.6225193000000000    0.1382825488888889 C
   0.7500000000000000    0.6225193000000000    0.2493936600000000 C
